Co25
1.0
   2.4788228254177493    0.0000000000000000    0.0000000000000002
  -1.2394114127088756    2.1467235382924890    0.0000000000000002
   0.0000000000000000    0.0000000000000000   60.7185108503759423
Co
25
direct
   0.6666666666666667    0.3333333333333333    0.0166666666666667 Co
   0.0000000000000002    1.0000000000000000    0.0500000000000000 Co
   0.3333333333333338    0.6666666666666666    0.0833333333333333 Co
   0.6666666666666673    0.3333333333333329    0.1166666666666666 Co
   0.0000000000000005    0.9999999999999997    0.1500000000000000 Co
   0.3333333333333327    0.6666666666666657    0.1833333333333332 Co
   0.6666666666666684    0.3333333333333328    0.2166666666666666 Co
   0.0000000000000008    0.9999999999999990    0.2499999999999999 Co
   0.3333333333333330    0.6666666666666661    0.2833333333333333 Co
   0.6666666666666670    0.3333333333333322    0.3166666666666665 Co
   0.0000000000000011    0.9999999999999992    0.3499999999999999 Co
   0.3333333333333333    0.6666666666666654    0.3833333333333331 Co
   0.6666666666666690    0.3333333333333334    0.4166666666666665 Co
   0.0000000000000014    0.9999999999999979    0.4499999999999998 Co
   0.3333333333333336    0.6666666666666657    0.4833333333333332 Co
   0.6666666666666730    0.3333333333333337    0.5166666666666665 Co
   0.0000000000000017    0.9999999999999999    0.5499999999999998 Co
   0.3333333333333375    0.6666666666666661    0.5833333333333331 Co
   0.6666666666666697    0.3333333333333322    0.6166666666666664 Co
   0.0000000000000020    0.9999999999999986    0.6499999999999997 Co
   0.3333333333333378    0.6666666666666663    0.6833333333333330 Co
   0.6666666666666700    0.3333333333333325    0.7166666666666663 Co
   0.0000000000000059    0.9999999999999988    0.7499999999999997 Co
   0.3333333333333380    0.6666666666666666    0.7833333333333331 Co
   0.6666666666666738    0.3333333333333311    0.8166666666666664 Co
