Cu
 1.0000000000000000
     2.5315162244236422   -0.0000000000000000    0.0000000000000002
     0.0000000000000000    2.5315162244238372    0.0000000000001781
    -0.0000000000000089    0.0000000000021342   37.1836962379935869
 Cu 
  14
Cartesian
  0.0000000000000254  2.5315162244267002 34.3286549999943986
  1.2657581122118500  1.2657581122147830 36.1519936294583388
  0.0000000000000175  2.5315162244260816 30.6348499499451883
  1.2657581122118484  1.2657581122145671 32.4816303010730252
  0.0000000000000223  2.5315162244254767 26.9400486675169972
  1.2657581122118486  1.2657581122137982 28.7871532640411516
  0.0000000000000220  2.5315162244252223 23.2458236448166353
  1.2657581122118420  1.2657581122134074 25.0929814645759315
  0.0000000000000227  2.5315162244248008 19.5516518453511488
  1.2657581122118462  1.2657581122131321 21.3987564418754026
  0.0000000000000187  2.5315162244240428 15.8571748083192539
  1.2657581122118464  1.2657581122125197 17.7039551594471476
  0.0000000000000157  2.5315162244238203 12.1868114799338692
  1.2657581122118406  1.2657581122118928 14.0101501093977667
