297
Properties=species:S:1:pos:R:3 pbc="F F F"
Ni      -7.02074518      -5.26555888      -1.75518629
Ni      -5.26555888      -7.02074518      -1.75518629
Ni      -5.26555888      -5.26555888      -3.51037259
Ni      -7.02074518      -5.26555888       1.75518629
Ni      -5.26555888      -7.02074518       1.75518629
Ni      -5.26555888      -5.26555888       0.00000000
Ni      -5.26555888      -5.26555888       3.51037259
Ni      -7.02074518      -1.75518629      -5.26555888
Ni      -5.26555888      -3.51037259      -5.26555888
Ni      -5.26555888      -1.75518629      -7.02074518
Ni      -7.02074518      -3.51037259      -3.51037259
Ni      -7.02074518      -1.75518629      -1.75518629
Ni      -5.26555888      -3.51037259      -1.75518629
Ni      -5.26555888      -1.75518629      -3.51037259
Ni      -7.02074518      -3.51037259       0.00000000
Ni      -7.02074518      -1.75518629       1.75518629
Ni      -5.26555888      -3.51037259       1.75518629
Ni      -5.26555888      -1.75518629       0.00000000
Ni      -7.02074518      -3.51037259       3.51037259
Ni      -7.02074518      -1.75518629       5.26555888
Ni      -5.26555888      -3.51037259       5.26555888
Ni      -5.26555888      -1.75518629       3.51037259
Ni      -5.26555888      -1.75518629       7.02074518
Ni      -7.02074518       1.75518629      -5.26555888
Ni      -5.26555888       0.00000000      -5.26555888
Ni      -5.26555888       1.75518629      -7.02074518
Ni      -7.02074518       0.00000000      -3.51037259
Ni      -7.02074518       1.75518629      -1.75518629
Ni      -5.26555888       0.00000000      -1.75518629
Ni      -5.26555888       1.75518629      -3.51037259
Ni      -7.02074518       0.00000000       0.00000000
Ni      -7.02074518       1.75518629       1.75518629
Ni      -5.26555888       0.00000000       1.75518629
Ni      -5.26555888       1.75518629       0.00000000
Ni      -7.02074518       0.00000000       3.51037259
Ni      -7.02074518       1.75518629       5.26555888
Ni      -5.26555888       0.00000000       5.26555888
Ni      -5.26555888       1.75518629       3.51037259
Ni      -5.26555888       1.75518629       7.02074518
Ni      -5.26555888       3.51037259      -5.26555888
Ni      -7.02074518       3.51037259      -3.51037259
Ni      -7.02074518       5.26555888      -1.75518629
Ni      -5.26555888       3.51037259      -1.75518629
Ni      -5.26555888       5.26555888      -3.51037259
Ni      -7.02074518       3.51037259       0.00000000
Ni      -7.02074518       5.26555888       1.75518629
Ni      -5.26555888       3.51037259       1.75518629
Ni      -5.26555888       5.26555888       0.00000000
Ni      -7.02074518       3.51037259       3.51037259
Ni      -5.26555888       3.51037259       5.26555888
Ni      -5.26555888       5.26555888       3.51037259
Ni      -5.26555888       7.02074518      -1.75518629
Ni      -5.26555888       7.02074518       1.75518629
Ni      -3.51037259      -5.26555888      -5.26555888
Ni      -1.75518629      -7.02074518      -5.26555888
Ni      -1.75518629      -5.26555888      -7.02074518
Ni      -3.51037259      -7.02074518      -3.51037259
Ni      -3.51037259      -5.26555888      -1.75518629
Ni      -1.75518629      -7.02074518      -1.75518629
Ni      -1.75518629      -5.26555888      -3.51037259
Ni      -3.51037259      -7.02074518       0.00000000
Ni      -3.51037259      -5.26555888       1.75518629
Ni      -1.75518629      -7.02074518       1.75518629
Ni      -1.75518629      -5.26555888       0.00000000
Ni      -3.51037259      -7.02074518       3.51037259
Ni      -3.51037259      -5.26555888       5.26555888
Ni      -1.75518629      -7.02074518       5.26555888
Ni      -1.75518629      -5.26555888       3.51037259
Ni      -1.75518629      -5.26555888       7.02074518
Ni      -3.51037259      -3.51037259      -7.02074518
Ni      -3.51037259      -1.75518629      -5.26555888
Ni      -1.75518629      -3.51037259      -5.26555888
Ni      -1.75518629      -1.75518629      -7.02074518
Ni      -3.51037259      -3.51037259      -3.51037259
Ni      -3.51037259      -1.75518629      -1.75518629
Ni      -1.75518629      -3.51037259      -1.75518629
Ni      -1.75518629      -1.75518629      -3.51037259
Ni      -3.51037259      -3.51037259       0.00000000
Ni      -3.51037259      -1.75518629       1.75518629
Ni      -1.75518629      -3.51037259       1.75518629
Ni      -1.75518629      -1.75518629       0.00000000
Ni      -3.51037259      -3.51037259       3.51037259
Ni      -3.51037259      -1.75518629       5.26555888
Ni      -1.75518629      -3.51037259       5.26555888
Ni      -1.75518629      -1.75518629       3.51037259
Ni      -3.51037259      -3.51037259       7.02074518
Ni      -1.75518629      -1.75518629       7.02074518
Ni      -3.51037259       0.00000000      -7.02074518
Ni      -3.51037259       1.75518629      -5.26555888
Ni      -1.75518629       0.00000000      -5.26555888
Ni      -1.75518629       1.75518629      -7.02074518
Ni      -3.51037259       0.00000000      -3.51037259
Ni      -3.51037259       1.75518629      -1.75518629
Ni      -1.75518629       0.00000000      -1.75518629
Ni      -1.75518629       1.75518629      -3.51037259
Ni      -3.51037259       0.00000000       0.00000000
Ni      -3.51037259       1.75518629       1.75518629
Ni      -1.75518629       0.00000000       1.75518629
Ni      -1.75518629       1.75518629       0.00000000
Ni      -3.51037259       0.00000000       3.51037259
Ni      -3.51037259       1.75518629       5.26555888
Ni      -1.75518629       0.00000000       5.26555888
Ni      -1.75518629       1.75518629       3.51037259
Ni      -3.51037259       0.00000000       7.02074518
Ni      -1.75518629       1.75518629       7.02074518
Ni      -3.51037259       3.51037259      -7.02074518
Ni      -3.51037259       5.26555888      -5.26555888
Ni      -1.75518629       3.51037259      -5.26555888
Ni      -1.75518629       5.26555888      -7.02074518
Ni      -3.51037259       3.51037259      -3.51037259
Ni      -3.51037259       5.26555888      -1.75518629
Ni      -1.75518629       3.51037259      -1.75518629
Ni      -1.75518629       5.26555888      -3.51037259
Ni      -3.51037259       3.51037259       0.00000000
Ni      -3.51037259       5.26555888       1.75518629
Ni      -1.75518629       3.51037259       1.75518629
Ni      -1.75518629       5.26555888       0.00000000
Ni      -3.51037259       3.51037259       3.51037259
Ni      -3.51037259       5.26555888       5.26555888
Ni      -1.75518629       3.51037259       5.26555888
Ni      -1.75518629       5.26555888       3.51037259
Ni      -3.51037259       3.51037259       7.02074518
Ni      -1.75518629       5.26555888       7.02074518
Ni      -1.75518629       7.02074518      -5.26555888
Ni      -3.51037259       7.02074518      -3.51037259
Ni      -1.75518629       7.02074518      -1.75518629
Ni      -3.51037259       7.02074518       0.00000000
Ni      -1.75518629       7.02074518       1.75518629
Ni      -3.51037259       7.02074518       3.51037259
Ni      -1.75518629       7.02074518       5.26555888
Ni       0.00000000      -5.26555888      -5.26555888
Ni       1.75518629      -7.02074518      -5.26555888
Ni       1.75518629      -5.26555888      -7.02074518
Ni       0.00000000      -7.02074518      -3.51037259
Ni       0.00000000      -5.26555888      -1.75518629
Ni       1.75518629      -7.02074518      -1.75518629
Ni       1.75518629      -5.26555888      -3.51037259
Ni       0.00000000      -7.02074518       0.00000000
Ni       0.00000000      -5.26555888       1.75518629
Ni       1.75518629      -7.02074518       1.75518629
Ni       1.75518629      -5.26555888       0.00000000
Ni       0.00000000      -7.02074518       3.51037259
Ni       0.00000000      -5.26555888       5.26555888
Ni       1.75518629      -7.02074518       5.26555888
Ni       1.75518629      -5.26555888       3.51037259
Ni       1.75518629      -5.26555888       7.02074518
Ni       0.00000000      -3.51037259      -7.02074518
Ni       0.00000000      -1.75518629      -5.26555888
Ni       1.75518629      -3.51037259      -5.26555888
Ni       1.75518629      -1.75518629      -7.02074518
Ni       0.00000000      -3.51037259      -3.51037259
Ni       0.00000000      -1.75518629      -1.75518629
Ni       1.75518629      -3.51037259      -1.75518629
Ni       1.75518629      -1.75518629      -3.51037259
Ni       0.00000000      -3.51037259       0.00000000
Ni       0.00000000      -1.75518629       1.75518629
Ni       1.75518629      -3.51037259       1.75518629
Ni       1.75518629      -1.75518629       0.00000000
Ni       0.00000000      -3.51037259       3.51037259
Ni       0.00000000      -1.75518629       5.26555888
Ni       1.75518629      -3.51037259       5.26555888
Ni       1.75518629      -1.75518629       3.51037259
Ni       0.00000000      -3.51037259       7.02074518
Ni       1.75518629      -1.75518629       7.02074518
Ni       0.00000000       0.00000000      -7.02074518
Ni       0.00000000       1.75518629      -5.26555888
Ni       1.75518629       0.00000000      -5.26555888
Ni       1.75518629       1.75518629      -7.02074518
Ni       0.00000000       0.00000000      -3.51037259
Ni       0.00000000       1.75518629      -1.75518629
Ni       1.75518629       0.00000000      -1.75518629
Ni       1.75518629       1.75518629      -3.51037259
Ni       0.00000000       0.00000000       0.00000000
Ni       0.00000000       1.75518629       1.75518629
Ni       1.75518629       0.00000000       1.75518629
Ni       1.75518629       1.75518629       0.00000000
Ni       0.00000000       0.00000000       3.51037259
Ni       0.00000000       1.75518629       5.26555888
Ni       1.75518629       0.00000000       5.26555888
Ni       1.75518629       1.75518629       3.51037259
Ni       0.00000000       0.00000000       7.02074518
Ni       1.75518629       1.75518629       7.02074518
Ni       0.00000000       3.51037259      -7.02074518
Ni       0.00000000       5.26555888      -5.26555888
Ni       1.75518629       3.51037259      -5.26555888
Ni       1.75518629       5.26555888      -7.02074518
Ni       0.00000000       3.51037259      -3.51037259
Ni       0.00000000       5.26555888      -1.75518629
Ni       1.75518629       3.51037259      -1.75518629
Ni       1.75518629       5.26555888      -3.51037259
Ni       0.00000000       3.51037259       0.00000000
Ni       0.00000000       5.26555888       1.75518629
Ni       1.75518629       3.51037259       1.75518629
Ni       1.75518629       5.26555888       0.00000000
Ni       0.00000000       3.51037259       3.51037259
Ni       0.00000000       5.26555888       5.26555888
Ni       1.75518629       3.51037259       5.26555888
Ni       1.75518629       5.26555888       3.51037259
Ni       0.00000000       3.51037259       7.02074518
Ni       1.75518629       5.26555888       7.02074518
Ni       1.75518629       7.02074518      -5.26555888
Ni       0.00000000       7.02074518      -3.51037259
Ni       1.75518629       7.02074518      -1.75518629
Ni       0.00000000       7.02074518       0.00000000
Ni       1.75518629       7.02074518       1.75518629
Ni       0.00000000       7.02074518       3.51037259
Ni       1.75518629       7.02074518       5.26555888
Ni       3.51037259      -5.26555888      -5.26555888
Ni       3.51037259      -7.02074518      -3.51037259
Ni       3.51037259      -5.26555888      -1.75518629
Ni       5.26555888      -7.02074518      -1.75518629
Ni       5.26555888      -5.26555888      -3.51037259
Ni       3.51037259      -7.02074518       0.00000000
Ni       3.51037259      -5.26555888       1.75518629
Ni       5.26555888      -7.02074518       1.75518629
Ni       5.26555888      -5.26555888       0.00000000
Ni       3.51037259      -7.02074518       3.51037259
Ni       3.51037259      -5.26555888       5.26555888
Ni       5.26555888      -5.26555888       3.51037259
Ni       3.51037259      -3.51037259      -7.02074518
Ni       3.51037259      -1.75518629      -5.26555888
Ni       5.26555888      -3.51037259      -5.26555888
Ni       5.26555888      -1.75518629      -7.02074518
Ni       3.51037259      -3.51037259      -3.51037259
Ni       3.51037259      -1.75518629      -1.75518629
Ni       5.26555888      -3.51037259      -1.75518629
Ni       5.26555888      -1.75518629      -3.51037259
Ni       3.51037259      -3.51037259       0.00000000
Ni       3.51037259      -1.75518629       1.75518629
Ni       5.26555888      -3.51037259       1.75518629
Ni       5.26555888      -1.75518629       0.00000000
Ni       3.51037259      -3.51037259       3.51037259
Ni       3.51037259      -1.75518629       5.26555888
Ni       5.26555888      -3.51037259       5.26555888
Ni       5.26555888      -1.75518629       3.51037259
Ni       3.51037259      -3.51037259       7.02074518
Ni       5.26555888      -1.75518629       7.02074518
Ni       3.51037259       0.00000000      -7.02074518
Ni       3.51037259       1.75518629      -5.26555888
Ni       5.26555888       0.00000000      -5.26555888
Ni       5.26555888       1.75518629      -7.02074518
Ni       3.51037259       0.00000000      -3.51037259
Ni       3.51037259       1.75518629      -1.75518629
Ni       5.26555888       0.00000000      -1.75518629
Ni       5.26555888       1.75518629      -3.51037259
Ni       3.51037259       0.00000000       0.00000000
Ni       3.51037259       1.75518629       1.75518629
Ni       5.26555888       0.00000000       1.75518629
Ni       5.26555888       1.75518629       0.00000000
Ni       3.51037259       0.00000000       3.51037259
Ni       3.51037259       1.75518629       5.26555888
Ni       5.26555888       0.00000000       5.26555888
Ni       5.26555888       1.75518629       3.51037259
Ni       3.51037259       0.00000000       7.02074518
Ni       5.26555888       1.75518629       7.02074518
Ni       3.51037259       3.51037259      -7.02074518
Ni       3.51037259       5.26555888      -5.26555888
Ni       5.26555888       3.51037259      -5.26555888
Ni       3.51037259       3.51037259      -3.51037259
Ni       3.51037259       5.26555888      -1.75518629
Ni       5.26555888       3.51037259      -1.75518629
Ni       5.26555888       5.26555888      -3.51037259
Ni       3.51037259       3.51037259       0.00000000
Ni       3.51037259       5.26555888       1.75518629
Ni       5.26555888       3.51037259       1.75518629
Ni       5.26555888       5.26555888       0.00000000
Ni       3.51037259       3.51037259       3.51037259
Ni       3.51037259       5.26555888       5.26555888
Ni       5.26555888       3.51037259       5.26555888
Ni       5.26555888       5.26555888       3.51037259
Ni       3.51037259       3.51037259       7.02074518
Ni       3.51037259       7.02074518      -3.51037259
Ni       5.26555888       7.02074518      -1.75518629
Ni       3.51037259       7.02074518       0.00000000
Ni       5.26555888       7.02074518       1.75518629
Ni       3.51037259       7.02074518       3.51037259
Ni       7.02074518      -5.26555888      -1.75518629
Ni       7.02074518      -5.26555888       1.75518629
Ni       7.02074518      -1.75518629      -5.26555888
Ni       7.02074518      -3.51037259      -3.51037259
Ni       7.02074518      -1.75518629      -1.75518629
Ni       7.02074518      -3.51037259       0.00000000
Ni       7.02074518      -1.75518629       1.75518629
Ni       7.02074518      -3.51037259       3.51037259
Ni       7.02074518      -1.75518629       5.26555888
Ni       7.02074518       1.75518629      -5.26555888
Ni       7.02074518       0.00000000      -3.51037259
Ni       7.02074518       1.75518629      -1.75518629
Ni       7.02074518       0.00000000       0.00000000
Ni       7.02074518       1.75518629       1.75518629
Ni       7.02074518       0.00000000       3.51037259
Ni       7.02074518       1.75518629       5.26555888
Ni       7.02074518       3.51037259      -3.51037259
Ni       7.02074518       5.26555888      -1.75518629
Ni       7.02074518       3.51037259       0.00000000
Ni       7.02074518       5.26555888       1.75518629
Ni       7.02074518       3.51037259       3.51037259
