Fe
 1.0000000000000000
     2.4761931797694929   -0.0072153436031201   -0.0000000000000006
    -0.8322004177778617    2.3321722040418162    0.0000000000000009
    -0.0000000000000241   -0.0000000000007263   86.6053058264514419
 Fe 
  38
Cartesian
  1.6490947803828557  0.5776315433072892  0.7853120260578513
 -0.0051020183909084  1.7473253171298757  2.8423141089002018
  1.6490947803828013  0.5776315433073802  4.9190988952857229
 -0.0051020183906776  1.7473253171301582  6.9505782071189834
  1.6490947803827609  0.5776315433073540  8.9695371804973298
 -0.0051020183906018  1.7473253171300467 10.9903921576704615
  1.6490947803827745  0.5776315433071325 13.0112483324377326
 -0.0051020183907415  1.7473253171298315 15.0317575271552428
  1.6490947803829903  0.5776315433072761 17.0521778897891885
 -0.0051020183905888  1.7473253171296843 19.0727768052057769
  1.6490947803823159  0.5776315433071640 21.0931566545576992
 -0.0051020183905261  1.7473253171294412 23.1137008965507178
  1.6490947803831486  0.5776315433072291 25.1341986537637396
 -0.0051020183917209  1.7473253171307730 27.1546639532539871
  1.6490947803851150  0.5776315433061244 29.1751278468891080
 -0.0051020183927152  1.7473253171309795 31.1956880417372631
  1.6490947803834928  0.5776315433068351 33.2161805322791750
 -0.0051020183907360  1.7473253171296930 35.2366175701036610
  1.6490947803825760  0.5776315433071381 37.2572515927447370
 -0.0051020183909943  1.7473253171307268 39.2776698353321834
  1.6490947803835079  0.5776315433079957 41.2983038579702892
  0.8270983993874287 -0.5848468869120793 43.3187408957958837
 -0.8270983993876639  0.5848468869109906 45.3392333863432029
  0.8270983993872135 -0.5848468869132696 47.3597935811928608
 -0.8270983993882651  0.5848468869105757 49.3802574748176042
  0.8270983993876159 -0.5848468869121889 51.4007227742913315
 -0.8270983993872310  0.5848468869117753 53.4212205314953295
  0.8270983993878460 -0.5848468869116491 55.4417647734967503
 -0.8270983993876773  0.5848468869109761 57.4621446228678820
  0.8270983993866684 -0.5848468869127080 59.4827435382997720
 -0.8270983993875246  0.5848468869101129 61.5031639009377713
  0.8270983993869038 -0.5848468869112412 63.5236730956528461
 -0.8270983993861446  0.5848468869111937 65.5445292704180957
  0.8270983993865677 -0.5848468869116652 67.5653842475883977
 -0.8270983993871281  0.5848468869103516 69.5843432209585018
  0.8270983993868284 -0.5848468869116323 71.6158225327812943
 -0.8270983993869060  0.5848468869106555 73.6926073191611835
  0.8270983993867069 -0.5848468869118989 75.7496094020019228
