85
Properties=species:S:1:pos:R:3 pbc="F F F"
Au      -6.26468246      -2.08822749       0.00000000
Au      -6.26468246       0.00000000      -2.08822749
Au      -8.35290995       0.00000000       0.00000000
Au      -6.26468246       0.00000000       2.08822749
Au      -6.26468246       2.08822749       0.00000000
Au      -2.08822749      -6.26468246       0.00000000
Au      -4.17645498      -2.08822749      -2.08822749
Au      -2.08822749      -4.17645498      -2.08822749
Au      -2.08822749      -2.08822749      -4.17645498
Au      -4.17645498      -4.17645498       0.00000000
Au      -4.17645498      -2.08822749       2.08822749
Au      -2.08822749      -4.17645498       2.08822749
Au      -2.08822749      -2.08822749       0.00000000
Au      -2.08822749      -2.08822749       4.17645498
Au      -2.08822749       0.00000000      -6.26468246
Au      -4.17645498       0.00000000      -4.17645498
Au      -4.17645498       2.08822749      -2.08822749
Au      -2.08822749       0.00000000      -2.08822749
Au      -2.08822749       2.08822749      -4.17645498
Au      -4.17645498       0.00000000       0.00000000
Au      -4.17645498       2.08822749       2.08822749
Au      -2.08822749       0.00000000       2.08822749
Au      -2.08822749       2.08822749       0.00000000
Au      -4.17645498       0.00000000       4.17645498
Au      -2.08822749       0.00000000       6.26468246
Au      -2.08822749       2.08822749       4.17645498
Au      -2.08822749       4.17645498      -2.08822749
Au      -4.17645498       4.17645498       0.00000000
Au      -2.08822749       4.17645498       2.08822749
Au      -2.08822749       6.26468246       0.00000000
Au       0.00000000      -6.26468246      -2.08822749
Au       0.00000000      -8.35290995       0.00000000
Au       0.00000000      -6.26468246       2.08822749
Au       2.08822749      -6.26468246       0.00000000
Au       0.00000000      -2.08822749      -6.26468246
Au       0.00000000      -4.17645498      -4.17645498
Au       0.00000000      -2.08822749      -2.08822749
Au       2.08822749      -4.17645498      -2.08822749
Au       2.08822749      -2.08822749      -4.17645498
Au       0.00000000      -4.17645498       0.00000000
Au       0.00000000      -2.08822749       2.08822749
Au       2.08822749      -4.17645498       2.08822749
Au       2.08822749      -2.08822749       0.00000000
Au       0.00000000      -4.17645498       4.17645498
Au       0.00000000      -2.08822749       6.26468246
Au       2.08822749      -2.08822749       4.17645498
Au       0.00000000       0.00000000      -8.35290995
Au       0.00000000       2.08822749      -6.26468246
Au       2.08822749       0.00000000      -6.26468246
Au       0.00000000       0.00000000      -4.17645498
Au       0.00000000       2.08822749      -2.08822749
Au       2.08822749       0.00000000      -2.08822749
Au       2.08822749       2.08822749      -4.17645498
Au       0.00000000       0.00000000       0.00000000
Au       0.00000000       2.08822749       2.08822749
Au       2.08822749       0.00000000       2.08822749
Au       2.08822749       2.08822749       0.00000000
Au       0.00000000       0.00000000       4.17645498
Au       0.00000000       2.08822749       6.26468246
Au       2.08822749       0.00000000       6.26468246
Au       2.08822749       2.08822749       4.17645498
Au       0.00000000       0.00000000       8.35290995
Au       0.00000000       4.17645498      -4.17645498
Au       0.00000000       6.26468246      -2.08822749
Au       2.08822749       4.17645498      -2.08822749
Au       0.00000000       4.17645498       0.00000000
Au       0.00000000       6.26468246       2.08822749
Au       2.08822749       4.17645498       2.08822749
Au       2.08822749       6.26468246       0.00000000
Au       0.00000000       4.17645498       4.17645498
Au       0.00000000       8.35290995       0.00000000
Au       4.17645498      -2.08822749      -2.08822749
Au       4.17645498      -4.17645498       0.00000000
Au       4.17645498      -2.08822749       2.08822749
Au       6.26468246      -2.08822749       0.00000000
Au       4.17645498       0.00000000      -4.17645498
Au       4.17645498       2.08822749      -2.08822749
Au       6.26468246       0.00000000      -2.08822749
Au       4.17645498       0.00000000       0.00000000
Au       4.17645498       2.08822749       2.08822749
Au       6.26468246       0.00000000       2.08822749
Au       6.26468246       2.08822749       0.00000000
Au       4.17645498       0.00000000       4.17645498
Au       4.17645498       4.17645498       0.00000000
Au       8.35290995       0.00000000       0.00000000
