225

Cu     -8.776213108868529     -1.771335530181796      0.000000000000000
Cu     -8.776213108868529      0.000000000000000     -1.771335530181796
Cu     -8.776213108868527      0.000000000000000      1.771335530181797
Cu     -8.776213108868527      1.771335530181797      0.000000000000000
Cu     -5.347079542291811     -5.347079542291816     -0.000000000000000
Cu     -7.116802740361552     -1.833361537846848     -1.833361537846850
Cu     -5.392754181465864     -3.631143943370249     -1.848674836768515
Cu     -5.392754181465865     -1.848674836768513     -3.631143943370251
Cu     -7.083195862446828     -3.579337901624275      0.000000000000001
Cu     -7.116802740361552     -1.833361537846849      1.833361537846850
Cu     -5.392754181465863     -3.631143943370247      1.848674836768515
Cu     -5.347965354272253     -1.811029170641895     -0.000000000000000
Cu     -5.392754181465865     -1.848674836768513      3.631143943370250
Cu     -5.347079542291815      0.000000000000001     -5.347079542291813
Cu     -7.083195862446828      0.000000000000000     -3.579337901624274
Cu     -7.116802740361553      1.833361537846849     -1.833361537846849
Cu     -5.347965354272255      0.000000000000001     -1.811029170641897
Cu     -5.392754181465863      1.848674836768515     -3.631143943370249
Cu     -7.065746725236602      0.000000000000001     -0.000000000000000
Cu     -7.116802740361553      1.833361537846850      1.833361537846850
Cu     -5.347965354272252      0.000000000000000      1.811029170641896
Cu     -5.347965354272255      1.811029170641897      0.000000000000000
Cu     -7.083195862446828      0.000000000000001      3.579337901624273
Cu     -5.347079542291816      0.000000000000001      5.347079542291813
Cu     -5.392754181465865      1.848674836768514      3.631143943370250
Cu     -5.392754181465864      3.631143943370247     -1.848674836768515
Cu     -7.083195862446828      3.579337901624274      0.000000000000000
Cu     -5.392754181465865      3.631143943370248      1.848674836768516
Cu     -5.347079542291815      5.347079542291813      0.000000000000000
Cu     -1.771335530181795     -8.776213108868527      0.000000000000000
Cu     -3.631143943370248     -5.392754181465863     -1.848674836768514
Cu     -1.833361537846848     -7.116802740361552     -1.833361537846850
Cu     -1.848674836768514     -5.392754181465863     -3.631143943370249
Cu     -3.579337901624274     -7.083195862446828      0.000000000000000
Cu     -3.631143943370248     -5.392754181465862      1.848674836768514
Cu     -1.833361537846849     -7.116802740361551      1.833361537846850
Cu     -1.811029170641897     -5.347965354272255     -0.000000000000001
Cu     -1.848674836768515     -5.392754181465858      3.631143943370248
Cu     -3.631143943370249     -1.848674836768514     -5.392754181465865
Cu     -1.848674836768515     -3.631143943370250     -5.392754181465863
Cu     -1.833361537846849     -1.833361537846849     -7.116802740361552
Cu     -3.642009990518496     -3.642009990518495     -3.642009990518496
Cu     -3.597016643016519     -1.813268832955086     -1.813268832955088
Cu     -1.813268832955087     -3.597016643016518     -1.813268832955087
Cu     -1.813268832955087     -1.813268832955086     -3.597016643016520
Cu     -3.600018308962477     -3.600018308962476     -0.000000000000001
Cu     -3.597016643016518     -1.813268832955087      1.813268832955086
Cu     -1.813268832955086     -3.597016643016519      1.813268832955086
Cu     -1.807815662765928     -1.807815662765927     -0.000000000000000
Cu     -3.642009990518496     -3.642009990518492      3.642009990518496
Cu     -3.631143943370250     -1.848674836768514      5.392754181465865
Cu     -1.848674836768515     -3.631143943370246      5.392754181465865
Cu     -1.813268832955086     -1.813268832955087      3.597016643016517
Cu     -1.833361537846848     -1.833361537846848      7.116802740361553
Cu     -1.771335530181796     -0.000000000000000     -8.776213108868530
Cu     -3.579337901624274      0.000000000000000     -7.083195862446828
Cu     -3.631143943370248      1.848674836768515     -5.392754181465865
Cu     -1.811029170641896      0.000000000000001     -5.347965354272255
Cu     -1.833361537846850      1.833361537846850     -7.116802740361554
Cu     -3.600018308962477      0.000000000000001     -3.600018308962477
Cu     -3.597016643016517      1.813268832955087     -1.813268832955087
Cu     -1.807815662765928      0.000000000000000     -1.807815662765927
Cu     -1.813268832955087      1.813268832955087     -3.597016643016518
Cu     -3.591935082549538      0.000000000000000      0.000000000000000
Cu     -3.597016643016519      1.813268832955087      1.813268832955088
Cu     -1.807815662765928      0.000000000000001      1.807815662765927
Cu     -1.807815662765928      1.807815662765929     -0.000000000000000
Cu     -3.600018308962476      0.000000000000000      3.600018308962478
Cu     -3.631143943370249      1.848674836768514      5.392754181465863
Cu     -1.811029170641897      0.000000000000000      5.347965354272255
Cu     -1.813268832955087      1.813268832955087      3.597016643016520
Cu     -3.579337901624275      0.000000000000000      7.083195862446828
Cu     -1.771335530181796      0.000000000000000      8.776213108868527
Cu     -1.833361537846850      1.833361537846849      7.116802740361553
Cu     -1.848674836768514      3.631143943370249     -5.392754181465865
Cu     -3.642009990518495      3.642009990518496     -3.642009990518496
Cu     -3.631143943370248      5.392754181465861     -1.848674836768514
Cu     -1.813268832955086      3.597016643016520     -1.813268832955087
Cu     -1.848674836768514      5.392754181465865     -3.631143943370250
Cu     -3.600018308962479      3.600018308962477      0.000000000000000
Cu     -3.631143943370249      5.392754181465860      1.848674836768514
Cu     -1.813268832955087      3.597016643016520      1.813268832955087
Cu     -1.811029170641898      5.347965354272255     -0.000000000000000
Cu     -3.642009990518496      3.642009990518495      3.642009990518496
Cu     -1.848674836768514      3.631143943370249      5.392754181465863
Cu     -1.848674836768516      5.392754181465863      3.631143943370250
Cu     -1.833361537846849      7.116802740361552     -1.833361537846848
Cu     -3.579337901624275      7.083195862446827      0.000000000000000
Cu     -1.833361537846851      7.116802740361553      1.833361537846848
Cu     -1.771335530181796      8.776213108868529     -0.000000000000000
Cu     -0.000000000000000     -8.776213108868527     -1.771335530181797
Cu     -0.000000000000000     -8.776213108868527      1.771335530181799
Cu      1.771335530181796     -8.776213108868529      0.000000000000001
Cu     -0.000000000000001     -5.347079542291816     -5.347079542291813
Cu      0.000000000000000     -7.083195862446828     -3.579337901624274
Cu     -0.000000000000000     -5.347965354272255     -1.811029170641897
Cu      1.833361537846848     -7.116802740361552     -1.833361537846850
Cu      1.848674836768514     -5.392754181465860     -3.631143943370249
Cu     -0.000000000000000     -7.065746725236603     -0.000000000000001
Cu     -0.000000000000000     -5.347965354272254      1.811029170641897
Cu      1.833361537846850     -7.116802740361551      1.833361537846850
Cu      1.811029170641896     -5.347965354272251     -0.000000000000001
Cu     -0.000000000000001     -7.083195862446824      3.579337901624277
Cu     -0.000000000000000     -5.347079542291813      5.347079542291816
Cu      1.848674836768515     -5.392754181465864      3.631143943370250
Cu      0.000000000000001     -1.771335530181796     -8.776213108868527
Cu     -0.000000000000000     -3.579337901624275     -7.083195862446828
Cu      0.000000000000000     -1.811029170641897     -5.347965354272255
Cu      1.848674836768514     -3.631143943370248     -5.392754181465865
Cu      1.833361537846849     -1.833361537846848     -7.116802740361553
Cu     -0.000000000000001     -3.600018308962478     -3.600018308962478
Cu     -0.000000000000000     -1.807815662765928     -1.807815662765928
Cu      1.813268832955087     -3.597016643016518     -1.813268832955087
Cu      1.813268832955086     -1.813268832955087     -3.597016643016519
Cu     -0.000000000000000     -3.591935082549537     -0.000000000000000
Cu     -0.000000000000000     -1.807815662765927      1.807815662765927
Cu      1.813268832955086     -3.597016643016518      1.813268832955086
Cu      1.807815662765927     -1.807815662765927     -0.000000000000001
Cu      0.000000000000001     -3.600018308962477      3.600018308962476
Cu     -0.000000000000000     -1.811029170641896      5.347965354272250
Cu      1.848674836768514     -3.631143943370249      5.392754181465865
Cu      1.813268832955086     -1.813268832955087      3.597016643016517
Cu      0.000000000000000     -3.579337901624273      7.083195862446828
Cu      0.000000000000001     -1.771335530181796      8.776213108868529
Cu      1.833361537846848     -1.833361537846848      7.116802740361552
Cu      0.000000000000001      1.771335530181796     -8.776213108868530
Cu      1.771335530181797     -0.000000000000000     -8.776213108868534
Cu      0.000000000000002     -0.000000000000000     -7.065746725236604
Cu     -0.000000000000000      1.811029170641897     -5.347965354272255
Cu      1.811029170641896      0.000000000000000     -5.347965354272255
Cu      1.833361537846851      1.833361537846848     -7.116802740361552
Cu     -0.000000000000000      0.000000000000000     -3.591935082549539
Cu     -0.000000000000001      1.807815662765928     -1.807815662765928
Cu      1.807815662765928      0.000000000000000     -1.807815662765928
Cu      1.813268832955085      1.813268832955086     -3.597016643016519
Cu     -0.000000000000000      0.000000000000001     -0.000000000000001
Cu     -0.000000000000001      1.807815662765928      1.807815662765927
Cu      1.807815662765927      0.000000000000001      1.807815662765928
Cu      1.807815662765927      1.807815662765929     -0.000000000000001
Cu     -0.000000000000001      0.000000000000001      3.591935082549537
Cu     -0.000000000000000      1.811029170641897      5.347965354272253
Cu      1.811029170641896      0.000000000000001      5.347965354272250
Cu      1.813268832955086      1.813268832955086      3.597016643016517
Cu      0.000000000000000     -0.000000000000001      7.065746725236603
Cu      0.000000000000001      1.771335530181796      8.776213108868522
Cu      1.771335530181797      0.000000000000000      8.776213108868527
Cu      1.833361537846849      1.833361537846850      7.116802740361552
Cu      0.000000000000001      3.579337901624275     -7.083195862446828
Cu     -0.000000000000000      5.347079542291816     -5.347079542291814
Cu      1.848674836768514      3.631143943370249     -5.392754181465860
Cu     -0.000000000000001      3.600018308962478     -3.600018308962478
Cu      0.000000000000000      5.347965354272253     -1.811029170641898
Cu      1.813268832955087      3.597016643016519     -1.813268832955087
Cu      1.848674836768514      5.392754181465865     -3.631143943370248
Cu     -0.000000000000000      3.591935082549539     -0.000000000000000
Cu     -0.000000000000001      5.347965354272254      1.811029170641897
Cu      1.813268832955087      3.597016643016520      1.813268832955087
Cu      1.811029170641896      5.347965354272255     -0.000000000000000
Cu     -0.000000000000001      3.600018308962477      3.600018308962478
Cu     -0.000000000000001      5.347079542291814      5.347079542291814
Cu      1.848674836768514      3.631143943370248      5.392754181465860
Cu      1.848674836768514      5.392754181465863      3.631143943370248
Cu      0.000000000000000      3.579337901624275      7.083195862446827
Cu     -0.000000000000000      7.083195862446828     -3.579337901624275
Cu      0.000000000000000      8.776213108868527     -1.771335530181796
Cu      1.833361537846849      7.116802740361552     -1.833361537846850
Cu     -0.000000000000001      7.065746725236602     -0.000000000000001
Cu      0.000000000000001      8.776213108868523      1.771335530181797
Cu      1.833361537846851      7.116802740361552      1.833361537846851
Cu      1.771335530181797      8.776213108868523      0.000000000000000
Cu     -0.000000000000000      7.083195862446825      3.579337901624275
Cu      3.631143943370250     -5.392754181465863     -1.848674836768514
Cu      3.579337901624274     -7.083195862446826      0.000000000000001
Cu      3.631143943370247     -5.392754181465861      1.848674836768514
Cu      5.347079542291813     -5.347079542291813      0.000000000000000
Cu      3.631143943370247     -1.848674836768514     -5.392754181465864
Cu      3.642009990518495     -3.642009990518493     -3.642009990518496
Cu      3.597016643016519     -1.813268832955087     -1.813268832955086
Cu      5.392754181465864     -3.631143943370250     -1.848674836768514
Cu      5.392754181465863     -1.848674836768515     -3.631143943370247
Cu      3.600018308962478     -3.600018308962476     -0.000000000000001
Cu      3.597016643016517     -1.813268832955085      1.813268832955086
Cu      5.392754181465862     -3.631143943370247      1.848674836768514
Cu      5.347965354272255     -1.811029170641897      0.000000000000000
Cu      3.642009990518493     -3.642009990518493      3.642009990518495
Cu      3.631143943370248     -1.848674836768514      5.392754181465862
Cu      5.392754181465860     -1.848674836768514      3.631143943370248
Cu      3.579337901624274      0.000000000000001     -7.083195862446829
Cu      3.631143943370247      1.848674836768514     -5.392754181465858
Cu      5.347079542291815     -0.000000000000001     -5.347079542291813
Cu      3.600018308962476     -0.000000000000001     -3.600018308962478
Cu      3.597016643016517      1.813268832955087     -1.813268832955088
Cu      5.347965354272251      0.000000000000000     -1.811029170641896
Cu      5.392754181465865      1.848674836768515     -3.631143943370248
Cu      3.591935082549539      0.000000000000000     -0.000000000000000
Cu      3.597016643016519      1.813268832955087      1.813268832955086
Cu      5.347965354272255      0.000000000000000      1.811029170641897
Cu      5.347965354272252      1.811029170641897     -0.000000000000000
Cu      3.600018308962477      0.000000000000001      3.600018308962477
Cu      3.631143943370249      1.848674836768516      5.392754181465860
Cu      5.347079542291813      0.000000000000001      5.347079542291815
Cu      5.392754181465863      1.848674836768515      3.631143943370248
Cu      3.579337901624272      0.000000000000000      7.083195862446828
Cu      3.642009990518495      3.642009990518496     -3.642009990518493
Cu      3.631143943370248      5.392754181465863     -1.848674836768514
Cu      5.392754181465862      3.631143943370249     -1.848674836768515
Cu      3.600018308962477      3.600018308962477     -0.000000000000000
Cu      3.631143943370249      5.392754181465863      1.848674836768515
Cu      5.392754181465863      3.631143943370249      1.848674836768513
Cu      5.347079542291812      5.347079542291816     -0.000000000000000
Cu      3.642009990518495      3.642009990518495      3.642009990518492
Cu      3.579337901624275      7.083195862446825      0.000000000000000
Cu      7.116802740361554     -1.833361537846850     -1.833361537846850
Cu      7.083195862446827     -3.579337901624275      0.000000000000001
Cu      7.116802740361554     -1.833361537846850      1.833361537846852
Cu      8.776213108868523     -1.771335530181796      0.000000000000001
Cu      7.083195862446827     -0.000000000000000     -3.579337901624273
Cu      7.116802740361552      1.833361537846850     -1.833361537846849
Cu      8.776213108868530      0.000000000000001     -1.771335530181797
Cu      7.065746725236602      0.000000000000002     -0.000000000000001
Cu      7.116802740361554      1.833361537846852      1.833361537846850
Cu      8.776213108868522      0.000000000000001      1.771335530181797
Cu      8.776213108868530      1.771335530181797     -0.000000000000000
Cu      7.083195862446828      0.000000000000001      3.579337901624276
Cu      7.083195862446828      3.579337901624276     -0.000000000000000
