337
Properties=species:S:1:pos:R:3 pbc="F F F"
Fe      -4.28030621      -6.05329566      -4.03594422
Fe      -4.28030621      -6.05329566       0.00000000
Fe      -4.28030621      -6.05329566       4.03594422
Fe      -4.28030621      -4.03553044      -6.05391634
Fe      -4.28030621      -2.01776522      -8.07188845
Fe      -4.28030621      -4.03553044      -2.01797211
Fe      -4.28030621      -2.01776522      -4.03594422
Fe      -4.28030621      -4.03553044       2.01797211
Fe      -4.28030621      -2.01776522       0.00000000
Fe      -4.28030621      -4.03553044       6.05391634
Fe      -4.28030621      -2.01776522       4.03594422
Fe      -4.28030621      -2.01776522       8.07188845
Fe      -4.28030621       0.00000000     -10.08986056
Fe      -4.28030621       0.00000000      -6.05391634
Fe      -4.28030621       2.01776522      -8.07188845
Fe      -4.28030621       0.00000000      -2.01797211
Fe      -4.28030621       2.01776522      -4.03594422
Fe      -4.28030621       0.00000000       2.01797211
Fe      -4.28030621       2.01776522       0.00000000
Fe      -4.28030621       0.00000000       6.05391634
Fe      -4.28030621       2.01776522       4.03594422
Fe      -4.28030621       0.00000000      10.08986056
Fe      -4.28030621       2.01776522       8.07188845
Fe      -4.28030621       4.03553044      -6.05391634
Fe      -4.28030621       4.03553044      -2.01797211
Fe      -4.28030621       6.05329566      -4.03594422
Fe      -4.28030621       4.03553044       2.01797211
Fe      -4.28030621       6.05329566       0.00000000
Fe      -4.28030621       4.03553044       6.05391634
Fe      -4.28030621       6.05329566       4.03594422
Fe      -1.42676874     -10.08882610      -4.03594422
Fe      -1.42676874     -10.08882610       0.00000000
Fe      -1.42676874     -10.08882610       4.03594422
Fe      -2.85353748      -6.05329566      -6.05391634
Fe      -1.42676874      -8.07106088      -6.05391634
Fe      -1.42676874      -6.05329566      -8.07188845
Fe      -2.85353748      -8.07106088      -4.03594422
Fe      -2.85353748      -6.05329566      -2.01797211
Fe      -1.42676874      -8.07106088      -2.01797211
Fe      -1.42676874      -6.05329566      -4.03594422
Fe      -2.85353748      -8.07106088       0.00000000
Fe      -2.85353748      -6.05329566       2.01797211
Fe      -1.42676874      -8.07106088       2.01797211
Fe      -1.42676874      -6.05329566       0.00000000
Fe      -2.85353748      -8.07106088       4.03594422
Fe      -2.85353748      -6.05329566       6.05391634
Fe      -1.42676874      -8.07106088       6.05391634
Fe      -1.42676874      -6.05329566       4.03594422
Fe      -1.42676874      -6.05329566       8.07188845
Fe      -2.85353748      -2.01776522     -10.08986056
Fe      -1.42676874      -4.03553044     -10.08986056
Fe      -1.42676874      -2.01776522     -12.10783267
Fe      -2.85353748      -4.03553044      -8.07188845
Fe      -2.85353748      -2.01776522      -6.05391634
Fe      -1.42676874      -4.03553044      -6.05391634
Fe      -1.42676874      -2.01776522      -8.07188845
Fe      -2.85353748      -4.03553044      -4.03594422
Fe      -2.85353748      -2.01776522      -2.01797211
Fe      -1.42676874      -4.03553044      -2.01797211
Fe      -1.42676874      -2.01776522      -4.03594422
Fe      -2.85353748      -4.03553044       0.00000000
Fe      -2.85353748      -2.01776522       2.01797211
Fe      -1.42676874      -4.03553044       2.01797211
Fe      -1.42676874      -2.01776522       0.00000000
Fe      -2.85353748      -4.03553044       4.03594422
Fe      -2.85353748      -2.01776522       6.05391634
Fe      -1.42676874      -4.03553044       6.05391634
Fe      -1.42676874      -2.01776522       4.03594422
Fe      -2.85353748      -4.03553044       8.07188845
Fe      -2.85353748      -2.01776522      10.08986056
Fe      -1.42676874      -4.03553044      10.08986056
Fe      -1.42676874      -2.01776522       8.07188845
Fe      -1.42676874      -2.01776522      12.10783267
Fe      -1.42676874       0.00000000     -14.12580478
Fe      -2.85353748       0.00000000     -12.10783267
Fe      -2.85353748       2.01776522     -10.08986056
Fe      -1.42676874       0.00000000     -10.08986056
Fe      -1.42676874       2.01776522     -12.10783267
Fe      -2.85353748       0.00000000      -8.07188845
Fe      -2.85353748       2.01776522      -6.05391634
Fe      -1.42676874       0.00000000      -6.05391634
Fe      -1.42676874       2.01776522      -8.07188845
Fe      -2.85353748       0.00000000      -4.03594422
Fe      -2.85353748       2.01776522      -2.01797211
Fe      -1.42676874       0.00000000      -2.01797211
Fe      -1.42676874       2.01776522      -4.03594422
Fe      -2.85353748       0.00000000       0.00000000
Fe      -2.85353748       2.01776522       2.01797211
Fe      -1.42676874       0.00000000       2.01797211
Fe      -1.42676874       2.01776522       0.00000000
Fe      -2.85353748       0.00000000       4.03594422
Fe      -2.85353748       2.01776522       6.05391634
Fe      -1.42676874       0.00000000       6.05391634
Fe      -1.42676874       2.01776522       4.03594422
Fe      -2.85353748       0.00000000       8.07188845
Fe      -2.85353748       2.01776522      10.08986056
Fe      -1.42676874       0.00000000      10.08986056
Fe      -1.42676874       2.01776522       8.07188845
Fe      -2.85353748       0.00000000      12.10783267
Fe      -1.42676874       0.00000000      14.12580478
Fe      -1.42676874       2.01776522      12.10783267
Fe      -1.42676874       4.03553044     -10.08986056
Fe      -2.85353748       4.03553044      -8.07188845
Fe      -2.85353748       6.05329566      -6.05391634
Fe      -1.42676874       4.03553044      -6.05391634
Fe      -1.42676874       6.05329566      -8.07188845
Fe      -2.85353748       4.03553044      -4.03594422
Fe      -2.85353748       6.05329566      -2.01797211
Fe      -1.42676874       4.03553044      -2.01797211
Fe      -1.42676874       6.05329566      -4.03594422
Fe      -2.85353748       4.03553044       0.00000000
Fe      -2.85353748       6.05329566       2.01797211
Fe      -1.42676874       4.03553044       2.01797211
Fe      -1.42676874       6.05329566       0.00000000
Fe      -2.85353748       4.03553044       4.03594422
Fe      -2.85353748       6.05329566       6.05391634
Fe      -1.42676874       4.03553044       6.05391634
Fe      -1.42676874       6.05329566       4.03594422
Fe      -2.85353748       4.03553044       8.07188845
Fe      -1.42676874       4.03553044      10.08986056
Fe      -1.42676874       6.05329566       8.07188845
Fe      -1.42676874       8.07106088      -6.05391634
Fe      -2.85353748       8.07106088      -4.03594422
Fe      -1.42676874       8.07106088      -2.01797211
Fe      -1.42676874      10.08882610      -4.03594422
Fe      -2.85353748       8.07106088       0.00000000
Fe      -1.42676874       8.07106088       2.01797211
Fe      -1.42676874      10.08882610       0.00000000
Fe      -2.85353748       8.07106088       4.03594422
Fe      -1.42676874       8.07106088       6.05391634
Fe      -1.42676874      10.08882610       4.03594422
Fe       0.00000000     -10.08882610      -6.05391634
Fe       0.00000000     -12.10659132      -4.03594422
Fe       0.00000000     -10.08882610      -2.01797211
Fe       1.42676874     -10.08882610      -4.03594422
Fe       0.00000000     -12.10659132       0.00000000
Fe       0.00000000     -10.08882610       2.01797211
Fe       1.42676874     -10.08882610       0.00000000
Fe       0.00000000     -12.10659132       4.03594422
Fe       0.00000000     -10.08882610       6.05391634
Fe       1.42676874     -10.08882610       4.03594422
Fe       0.00000000      -6.05329566     -10.08986056
Fe       0.00000000      -8.07106088      -8.07188845
Fe       0.00000000      -6.05329566      -6.05391634
Fe       1.42676874      -8.07106088      -6.05391634
Fe       1.42676874      -6.05329566      -8.07188845
Fe       0.00000000      -8.07106088      -4.03594422
Fe       0.00000000      -6.05329566      -2.01797211
Fe       1.42676874      -8.07106088      -2.01797211
Fe       1.42676874      -6.05329566      -4.03594422
Fe       0.00000000      -8.07106088       0.00000000
Fe       0.00000000      -6.05329566       2.01797211
Fe       1.42676874      -8.07106088       2.01797211
Fe       1.42676874      -6.05329566       0.00000000
Fe       0.00000000      -8.07106088       4.03594422
Fe       0.00000000      -6.05329566       6.05391634
Fe       1.42676874      -8.07106088       6.05391634
Fe       1.42676874      -6.05329566       4.03594422
Fe       0.00000000      -8.07106088       8.07188845
Fe       0.00000000      -6.05329566      10.08986056
Fe       1.42676874      -6.05329566       8.07188845
Fe       0.00000000      -2.01776522     -14.12580478
Fe       0.00000000      -4.03553044     -12.10783267
Fe       0.00000000      -2.01776522     -10.08986056
Fe       1.42676874      -4.03553044     -10.08986056
Fe       1.42676874      -2.01776522     -12.10783267
Fe       0.00000000      -4.03553044      -8.07188845
Fe       0.00000000      -2.01776522      -6.05391634
Fe       1.42676874      -4.03553044      -6.05391634
Fe       1.42676874      -2.01776522      -8.07188845
Fe       0.00000000      -4.03553044      -4.03594422
Fe       0.00000000      -2.01776522      -2.01797211
Fe       1.42676874      -4.03553044      -2.01797211
Fe       1.42676874      -2.01776522      -4.03594422
Fe       0.00000000      -4.03553044       0.00000000
Fe       0.00000000      -2.01776522       2.01797211
Fe       1.42676874      -4.03553044       2.01797211
Fe       1.42676874      -2.01776522       0.00000000
Fe       0.00000000      -4.03553044       4.03594422
Fe       0.00000000      -2.01776522       6.05391634
Fe       1.42676874      -4.03553044       6.05391634
Fe       1.42676874      -2.01776522       4.03594422
Fe       0.00000000      -4.03553044       8.07188845
Fe       0.00000000      -2.01776522      10.08986056
Fe       1.42676874      -4.03553044      10.08986056
Fe       1.42676874      -2.01776522       8.07188845
Fe       0.00000000      -4.03553044      12.10783267
Fe       0.00000000      -2.01776522      14.12580478
Fe       1.42676874      -2.01776522      12.10783267
Fe       0.00000000       0.00000000     -16.14377689
Fe       0.00000000       2.01776522     -14.12580478
Fe       1.42676874       0.00000000     -14.12580478
Fe       0.00000000       0.00000000     -12.10783267
Fe       0.00000000       2.01776522     -10.08986056
Fe       1.42676874       0.00000000     -10.08986056
Fe       1.42676874       2.01776522     -12.10783267
Fe       0.00000000       0.00000000      -8.07188845
Fe       0.00000000       2.01776522      -6.05391634
Fe       1.42676874       0.00000000      -6.05391634
Fe       1.42676874       2.01776522      -8.07188845
Fe       0.00000000       0.00000000      -4.03594422
Fe       0.00000000       2.01776522      -2.01797211
Fe       1.42676874       0.00000000      -2.01797211
Fe       1.42676874       2.01776522      -4.03594422
Fe       0.00000000       0.00000000       0.00000000
Fe       0.00000000       2.01776522       2.01797211
Fe       1.42676874       0.00000000       2.01797211
Fe       1.42676874       2.01776522       0.00000000
Fe       0.00000000       0.00000000       4.03594422
Fe       0.00000000       2.01776522       6.05391634
Fe       1.42676874       0.00000000       6.05391634
Fe       1.42676874       2.01776522       4.03594422
Fe       0.00000000       0.00000000       8.07188845
Fe       0.00000000       2.01776522      10.08986056
Fe       1.42676874       0.00000000      10.08986056
Fe       1.42676874       2.01776522       8.07188845
Fe       0.00000000       0.00000000      12.10783267
Fe       0.00000000       2.01776522      14.12580478
Fe       1.42676874       0.00000000      14.12580478
Fe       1.42676874       2.01776522      12.10783267
Fe       0.00000000       0.00000000      16.14377689
Fe       0.00000000       4.03553044     -12.10783267
Fe       0.00000000       6.05329566     -10.08986056
Fe       1.42676874       4.03553044     -10.08986056
Fe       0.00000000       4.03553044      -8.07188845
Fe       0.00000000       6.05329566      -6.05391634
Fe       1.42676874       4.03553044      -6.05391634
Fe       1.42676874       6.05329566      -8.07188845
Fe       0.00000000       4.03553044      -4.03594422
Fe       0.00000000       6.05329566      -2.01797211
Fe       1.42676874       4.03553044      -2.01797211
Fe       1.42676874       6.05329566      -4.03594422
Fe       0.00000000       4.03553044       0.00000000
Fe       0.00000000       6.05329566       2.01797211
Fe       1.42676874       4.03553044       2.01797211
Fe       1.42676874       6.05329566       0.00000000
Fe       0.00000000       4.03553044       4.03594422
Fe       0.00000000       6.05329566       6.05391634
Fe       1.42676874       4.03553044       6.05391634
Fe       1.42676874       6.05329566       4.03594422
Fe       0.00000000       4.03553044       8.07188845
Fe       0.00000000       6.05329566      10.08986056
Fe       1.42676874       4.03553044      10.08986056
Fe       1.42676874       6.05329566       8.07188845
Fe       0.00000000       4.03553044      12.10783267
Fe       0.00000000       8.07106088      -8.07188845
Fe       0.00000000      10.08882610      -6.05391634
Fe       1.42676874       8.07106088      -6.05391634
Fe       0.00000000       8.07106088      -4.03594422
Fe       0.00000000      10.08882610      -2.01797211
Fe       1.42676874       8.07106088      -2.01797211
Fe       1.42676874      10.08882610      -4.03594422
Fe       0.00000000       8.07106088       0.00000000
Fe       0.00000000      10.08882610       2.01797211
Fe       1.42676874       8.07106088       2.01797211
Fe       1.42676874      10.08882610       0.00000000
Fe       0.00000000       8.07106088       4.03594422
Fe       0.00000000      10.08882610       6.05391634
Fe       1.42676874       8.07106088       6.05391634
Fe       1.42676874      10.08882610       4.03594422
Fe       0.00000000       8.07106088       8.07188845
Fe       0.00000000      12.10659132      -4.03594422
Fe       0.00000000      12.10659132       0.00000000
Fe       0.00000000      12.10659132       4.03594422
Fe       2.85353748      -6.05329566      -6.05391634
Fe       2.85353748      -8.07106088      -4.03594422
Fe       2.85353748      -6.05329566      -2.01797211
Fe       4.28030621      -6.05329566      -4.03594422
Fe       2.85353748      -8.07106088       0.00000000
Fe       2.85353748      -6.05329566       2.01797211
Fe       4.28030621      -6.05329566       0.00000000
Fe       2.85353748      -8.07106088       4.03594422
Fe       2.85353748      -6.05329566       6.05391634
Fe       4.28030621      -6.05329566       4.03594422
Fe       2.85353748      -2.01776522     -10.08986056
Fe       2.85353748      -4.03553044      -8.07188845
Fe       2.85353748      -2.01776522      -6.05391634
Fe       4.28030621      -4.03553044      -6.05391634
Fe       4.28030621      -2.01776522      -8.07188845
Fe       2.85353748      -4.03553044      -4.03594422
Fe       2.85353748      -2.01776522      -2.01797211
Fe       4.28030621      -4.03553044      -2.01797211
Fe       4.28030621      -2.01776522      -4.03594422
Fe       2.85353748      -4.03553044       0.00000000
Fe       2.85353748      -2.01776522       2.01797211
Fe       4.28030621      -4.03553044       2.01797211
Fe       4.28030621      -2.01776522       0.00000000
Fe       2.85353748      -4.03553044       4.03594422
Fe       2.85353748      -2.01776522       6.05391634
Fe       4.28030621      -4.03553044       6.05391634
Fe       4.28030621      -2.01776522       4.03594422
Fe       2.85353748      -4.03553044       8.07188845
Fe       2.85353748      -2.01776522      10.08986056
Fe       4.28030621      -2.01776522       8.07188845
Fe       2.85353748       0.00000000     -12.10783267
Fe       2.85353748       2.01776522     -10.08986056
Fe       4.28030621       0.00000000     -10.08986056
Fe       2.85353748       0.00000000      -8.07188845
Fe       2.85353748       2.01776522      -6.05391634
Fe       4.28030621       0.00000000      -6.05391634
Fe       4.28030621       2.01776522      -8.07188845
Fe       2.85353748       0.00000000      -4.03594422
Fe       2.85353748       2.01776522      -2.01797211
Fe       4.28030621       0.00000000      -2.01797211
Fe       4.28030621       2.01776522      -4.03594422
Fe       2.85353748       0.00000000       0.00000000
Fe       2.85353748       2.01776522       2.01797211
Fe       4.28030621       0.00000000       2.01797211
Fe       4.28030621       2.01776522       0.00000000
Fe       2.85353748       0.00000000       4.03594422
Fe       2.85353748       2.01776522       6.05391634
Fe       4.28030621       0.00000000       6.05391634
Fe       4.28030621       2.01776522       4.03594422
Fe       2.85353748       0.00000000       8.07188845
Fe       2.85353748       2.01776522      10.08986056
Fe       4.28030621       0.00000000      10.08986056
Fe       4.28030621       2.01776522       8.07188845
Fe       2.85353748       0.00000000      12.10783267
Fe       2.85353748       4.03553044      -8.07188845
Fe       2.85353748       6.05329566      -6.05391634
Fe       4.28030621       4.03553044      -6.05391634
Fe       2.85353748       4.03553044      -4.03594422
Fe       2.85353748       6.05329566      -2.01797211
Fe       4.28030621       4.03553044      -2.01797211
Fe       4.28030621       6.05329566      -4.03594422
Fe       2.85353748       4.03553044       0.00000000
Fe       2.85353748       6.05329566       2.01797211
Fe       4.28030621       4.03553044       2.01797211
Fe       4.28030621       6.05329566       0.00000000
Fe       2.85353748       4.03553044       4.03594422
Fe       2.85353748       6.05329566       6.05391634
Fe       4.28030621       4.03553044       6.05391634
Fe       4.28030621       6.05329566       4.03594422
Fe       2.85353748       4.03553044       8.07188845
Fe       2.85353748       8.07106088      -4.03594422
Fe       2.85353748       8.07106088       0.00000000
Fe       2.85353748       8.07106088       4.03594422
