Cu
 1.0000000000000000
     2.5520041594241132   -0.0000000000000000    0.0000000000000002
     0.0000000000000000    2.5520041594267622   -0.0000000000000678
    -0.0000000000000171   -0.0000000000050460   87.8137405349990701
 Cu 
  42
Cartesian
  0.0000000000001470  2.5520041594213341 84.9916973210832083
  1.2760020797122131  1.2760020797081473 86.7926550329786863
  0.0000000000001416  2.5520041594218337 81.3403948957095366
  1.2760020797122045  1.2760020797079958 83.1648543680866226
  0.0000000000001477  2.5520041594226717 77.6889864648889841
  1.2760020797122005  1.2760020797089893 79.5143888356135022
  0.0000000000001406  2.5520041594230802 74.0382672027019879
  1.2760020797122003  1.2760020797094946 75.8636763994527712
  0.0000000000001648  2.5520041594233556 70.3875029301521096
  1.2760020797122109  1.2760020797098528 72.2129239342558975
  0.0000000000001722  2.5520041594236043 66.7367221838626961
  1.2760020797122222  1.2760020797100480 68.5621574563121214
  0.0000000000001330  2.5520041594238991 63.0859422259513067
  1.2760020797122142  1.2760020797103924 64.9113384686986450
  0.0000000000001409  2.5520041594240386 59.4351192968696225
  1.2760020797121852  1.2760020797105736 61.2604718634603458
  0.0000000000001548  2.5520041594242402 55.7841836410738381
  1.2760020797122127  1.2760020797107645 57.6096508576272015
  0.0000000000001360  2.5520041594244325 52.1333473298695793
  1.2760020797122009  1.2760020797109448 53.9588324405679174
  0.0000000000001506  2.5520041594246314 48.4825682995065321
  1.2760020797122045  1.2760020797111518 50.3078898023673986
  0.0000000000001522  2.5520041594248433 44.8316256613051962
  1.2760020797122138  1.2760020797113540 46.6571107720040033
  0.0000000000001382  2.5520041594249934 41.1808072442449529
  1.2760020797122056  1.2760020797115768 43.0062744607987426
  0.0000000000001573  2.5520041594250631 37.5299862384126968
  1.2760020797122120  1.2760020797116050 39.3553388050027024
  0.0000000000001443  2.5520041594253513 33.8791196331758471
  1.2760020797122067  1.2760020797117773 35.7045158759226453
  0.0000000000001483  2.5520041594256386 30.2283006455624701
  1.2760020797121954  1.2760020797121632 32.0537359180118884
  0.0000000000001405  2.5520041594256266 26.5775341676186621
  1.2760020797122078  1.2760020797122276 28.4029551717224358
  0.0000000000001590  2.5520041594260494 22.9267817024219021
  1.2760020797122060  1.2760020797123999 24.7521908991726427
  0.0000000000001670  2.5520041594265592 19.2760692662616364
  1.2760020797122293  1.2760020797129124 21.1014716369859485
  0.0000000000001382  2.5520041594273768 15.6256037337885481
  1.2760020797122043  1.2760020797135698 17.4500632061656269
  0.0000000000001538  2.5520041594272933 11.9978030688955570
  1.2760020797122087  1.2760020797140876 13.7987607807914134
