Cu42
1.0
   2.5636948460759443    0.0000000000000000    0.0000000000000002
   0.0000000000000004    2.5636948460759443    0.0000000000000002
   0.0000000000000000    0.0000000000000000   87.0146885065585138
Cu
42
direct
   0.0000000000000021    1.0000000000000020    0.9687499999999999 Cu
   0.5000000000000023    0.5000000000000018    0.9895833333333334 Cu
   0.0000000000000020    1.0000000000000020    0.9270833333333334 Cu
   0.5000000000000022    0.5000000000000017    0.9479166666666666 Cu
   0.0000000000000020    1.0000000000000018    0.8854166666666666 Cu
   0.5000000000000021    0.5000000000000016    0.9062500000000001 Cu
   0.0000000000000019    1.0000000000000018    0.8437499999999999 Cu
   0.5000000000000020    0.5000000000000016    0.8645833333333334 Cu
   0.0000000000000018    1.0000000000000018    0.8020833333333334 Cu
   0.5000000000000019    0.5000000000000014    0.8229166666666667 Cu
   0.0000000000000017    1.0000000000000016    0.7604166666666666 Cu
   0.5000000000000019    0.5000000000000013    0.7812500000000001 Cu
   0.0000000000000016    1.0000000000000016    0.7187500000000000 Cu
   0.5000000000000018    0.5000000000000012    0.7395833333333333 Cu
   0.0000000000000015    1.0000000000000013    0.6770833333333333 Cu
   0.5000000000000017    0.5000000000000013    0.6979166666666666 Cu
   0.0000000000000014    1.0000000000000011    0.6354166666666667 Cu
   0.5000000000000016    0.5000000000000011    0.6562500000000000 Cu
   0.0000000000000013    1.0000000000000011    0.5937500000000000 Cu
   0.5000000000000016    0.5000000000000010    0.6145833333333333 Cu
   0.0000000000000013    1.0000000000000011    0.5520833333333333 Cu
   0.5000000000000014    0.5000000000000009    0.5729166666666667 Cu
   0.0000000000000012    1.0000000000000009    0.5104166666666667 Cu
   0.5000000000000013    0.5000000000000008    0.5312500000000000 Cu
   0.0000000000000011    1.0000000000000007    0.4687500000000000 Cu
   0.5000000000000012    0.5000000000000008    0.4895833333333333 Cu
   0.0000000000000010    1.0000000000000007    0.4270833333333333 Cu
   0.5000000000000011    0.5000000000000007    0.4479166666666667 Cu
   0.0000000000000009    1.0000000000000009    0.3854166666666667 Cu
   0.5000000000000011    0.5000000000000006    0.4062500000000000 Cu
   0.0000000000000008    1.0000000000000007    0.3437500000000000 Cu
   0.5000000000000010    0.5000000000000004    0.3645833333333334 Cu
   0.0000000000000007    1.0000000000000007    0.3020833333333334 Cu
   0.5000000000000009    0.5000000000000006    0.3229166666666667 Cu
   0.0000000000000007    1.0000000000000002    0.2604166666666666 Cu
   0.5000000000000008    0.5000000000000003    0.2812500000000000 Cu
   0.0000000000000006    1.0000000000000004    0.2187499999999999 Cu
   0.5000000000000007    0.5000000000000002    0.2395833333333334 Cu
   0.0000000000000005    1.0000000000000004    0.1770833333333334 Cu
   0.5000000000000007    0.5000000000000001    0.1979166666666667 Cu
   0.0000000000000004    1.0000000000000002    0.1354166666666666 Cu
   0.5000000000000006    0.5000000000000000    0.1562500000000001 Cu
