Fe
 1.0000000000000000
     2.4839434422027962   -0.0215240959462215    0.0000000000000009
    -0.8482742596708955    2.3347096374387912   -0.0000000000000003
     0.0000000000000095    0.0000000000000250   36.1773524356704641
 Fe 
  13
Cartesian
  1.6508890167343659  0.5675343373999543  0.8117413222906747
 -0.0152198342024249  1.7456512040925003  2.8717648394008681
  1.6508890167343691  0.5675343373999227  4.9513656496253304
 -0.0152198342024388  1.7456512040924672  6.9875913600277038
  1.6508890167344410  0.5675343373999617  9.0117891960648642
 -0.0152198342024498  1.7456512040924961 11.0378667774505956
  1.6508890167344537  0.5675343373998446 13.0640439351026494
 -0.0152198342024480  1.7456512040925654 15.0902210927554812
  1.6508890167345276  0.5675343374000248 17.1162986741441330
 -0.0152198342024722  1.7456512040924477 19.1404965101819791
  1.6508890167344459  0.5675343373998444 21.1767222205832795
 -0.0152198342023860  1.7456512040925223 23.2563230308058415
  1.6508890167344492  0.5675343373999323 25.3163465479146303
