Fe25
1.0
   2.4713281836767584    0.0000000000000000    0.0000000000000002
  -0.8237760612255860    2.3299905562870262    0.0000000000000002
   0.0000000000000000    0.0000000000000000   60.5349303696720185
Fe
25
direct
   0.7500000000000000    0.2500000000000001    0.0166666666666667 Fe
   0.2500000000000001    0.7500000000000002    0.0500000000000000 Fe
   0.7500000000000004    0.2500000000000002    0.0833333333333333 Fe
   0.2500000000000003    0.7500000000000000    0.1166666666666666 Fe
   0.7500000000000008    0.2500000000000003    0.1500000000000000 Fe
   0.2500000000000008    0.7500000000000000    0.1833333333333333 Fe
   0.7500000000000001    0.2500000000000005    0.2166666666666666 Fe
   0.2500000000000006    0.7500000000000007    0.2500000000000000 Fe
   0.7500000000000016    0.2500000000000006    0.2833333333333334 Fe
   0.2500000000000017    0.7499999999999998    0.3166666666666667 Fe
   0.7500000000000016    0.2499999999999999    0.3500000000000000 Fe
   0.2500000000000009    0.7500000000000010    0.3833333333333334 Fe
   0.7500000000000009    0.2500000000000009    0.4166666666666667 Fe
   0.2500000000000002    0.7500000000000011    0.4500000000000000 Fe
   0.7500000000000010    0.2500000000000002    0.4833333333333333 Fe
   0.2500000000000003    0.7500000000000012    0.5166666666666667 Fe
   0.7500000000000012    0.2500000000000012    0.5500000000000000 Fe
   0.2500000000000013    0.7500000000000014    0.5833333333333334 Fe
   0.7500000000000013    0.2500000000000014    0.6166666666666667 Fe
   0.2500000000000014    0.7500000000000016    0.6500000000000000 Fe
   0.7500000000000016    0.2500000000000016    0.6833333333333332 Fe
   0.2500000000000016    0.7500000000000018    0.7166666666666668 Fe
   0.7500000000000017    0.2500000000000017    0.7500000000000000 Fe
   0.2500000000000018    0.7500000000000019    0.7833333333333334 Fe
   0.7500000000000001    0.2500000000000036    0.8166666666666667 Fe
