Cu12
1.0
   2.5636948460759443    0.0000000000000000    0.0000000000000002
   1.2818474230379713    2.2202248642530038    0.0000000000000002
   0.0000000000000000    0.0000000000000000   35.5852172981717061
Cu
12
direct
   0.9999999999999990    0.9999999999999988    0.9705882352941174 Cu
   0.3333333333333324    0.3333333333333326    0.9117647058823528 Cu
   0.6666666666666660    0.6666666666666662    0.8529411764705881 Cu
   0.9999999999999986    0.9999999999999994    0.7941176470588235 Cu
   0.3333333333333319    0.3333333333333331    0.7352941176470588 Cu
   0.6666666666666659    0.6666666666666665    0.6764705882352940 Cu
   0.9999999999999981    0.9999999999999990    0.6176470588235293 Cu
   0.3333333333333319    0.3333333333333333    0.5588235294117647 Cu
   0.6666666666666653    0.6666666666666671    0.4999999999999999 Cu
   0.9999999999999992    1.0000000000000000    0.4411764705882352 Cu
   0.3333333333333322    0.3333333333333339    0.3823529411764706 Cu
   0.6666666666666662    0.6666666666666674    0.3235294117647058 Cu
