Co42
1.0
   2.4788228254177493    0.0000000000000000    0.0000000000000002
   0.0000000000000006    3.5055848584257761    0.0000000000000002
   0.0000000000000000    0.0000000000000000   64.4493934608615007
Co
42
direct
   0.7500000000000001    0.0000000000000000    0.0288461538461538 Co
   0.2500000000000000    0.5000000000000000    0.0096153846153846 Co
   0.7500000000000008    0.0000000000000001    0.0673076923076923 Co
   0.2500000000000003    0.5000000000000000    0.0480769230769231 Co
   0.7500000000000011    1.0000000000000002    0.1057692307692308 Co
   0.2500000000000006    0.5000000000000001    0.0865384615384615 Co
   0.7500000000000011    0.0000000000000002    0.1442307692307692 Co
   0.2500000000000011    0.5000000000000001    0.1250000000000000 Co
   0.7500000000000021    0.0000000000000002    0.1826923076923077 Co
   0.2500000000000012    0.5000000000000001    0.1634615384615384 Co
   0.7500000000000021    0.0000000000000002    0.2211538461538462 Co
   0.2500000000000012    0.5000000000000002    0.2019230769230769 Co
   0.7500000000000022    0.0000000000000003    0.2596153846153846 Co
   0.2500000000000022    0.5000000000000002    0.2403846153846154 Co
   0.7500000000000022    0.0000000000000003    0.2980769230769231 Co
   0.2500000000000023    0.5000000000000003    0.2788461538461539 Co
   0.7500000000000041    0.0000000000000004    0.3365384615384616 Co
   0.2500000000000023    0.5000000000000003    0.3173076923076923 Co
   0.7500000000000023    0.0000000000000004    0.3749999999999999 Co
   0.2500000000000041    0.5000000000000004    0.3557692307692308 Co
   0.7500000000000042    0.0000000000000005    0.4134615384615385 Co
   0.2500000000000042    0.5000000000000004    0.3942307692307693 Co
   0.7500000000000024    0.0000000000000005    0.4519230769230769 Co
   0.2500000000000025    0.5000000000000004    0.4326923076923077 Co
   0.7500000000000043    0.0000000000000006    0.4903846153846154 Co
   0.2500000000000061    0.5000000000000006    0.4711538461538462 Co
   0.7500000000000044    0.0000000000000006    0.5288461538461539 Co
   0.2500000000000044    0.5000000000000006    0.5096153846153847 Co
   0.7500000000000046    1.0000000000000007    0.5673076923076924 Co
   0.2500000000000027    0.5000000000000007    0.5480769230769229 Co
   0.7500000000000028    0.0000000000000007    0.6057692307692306 Co
   0.2500000000000028    0.5000000000000006    0.5865384615384615 Co
   0.7500000000000046    0.0000000000000007    0.6442307692307692 Co
   0.2500000000000046    0.5000000000000007    0.6250000000000001 Co
   0.7500000000000048    1.0000000000000007    0.6826923076923076 Co
   0.2500000000000046    0.5000000000000008    0.6634615384615383 Co
   0.7500000000000082    1.0000000000000009    0.7211538461538461 Co
   0.2500000000000047    0.5000000000000008    0.7019230769230770 Co
   0.7500000000000048    0.0000000000000009    0.7596153846153846 Co
   0.2500000000000047    0.5000000000000009    0.7403846153846152 Co
   0.7500000000000083    1.0000000000000009    0.7980769230769231 Co
   0.2500000000000048    0.5000000000000009    0.7788461538461537 Co
