Rh26
1.0
   2.7227595958572453    0.0000000000000000    0.0000000000000002
   0.0000000000000004    2.7227595958572448    0.0000000000000002
   0.0000000000000000    0.0000000000000000   61.6090167606848453
Rh
26
direct
   0.0000000000000013    1.0000000000000013    0.9531250000000000 Rh
   0.5000000000000013    0.5000000000000013    0.9843750000000000 Rh
   0.0000000000000012    1.0000000000000013    0.8906250000000001 Rh
   0.5000000000000013    0.5000000000000013    0.9218750000000000 Rh
   0.0000000000000011    0.0000000000000011    0.8281250000000000 Rh
   0.5000000000000012    0.5000000000000012    0.8593750000000000 Rh
   0.0000000000000011    0.0000000000000011    0.7656250000000000 Rh
   0.5000000000000011    0.5000000000000011    0.7968750000000000 Rh
   0.0000000000000010    0.0000000000000010    0.7031250000000000 Rh
   0.5000000000000010    0.5000000000000011    0.7343750000000000 Rh
   1.0000000000000009    0.0000000000000009    0.6406250000000000 Rh
   0.5000000000000009    0.5000000000000009    0.6718750000000000 Rh
   0.0000000000000008    0.0000000000000008    0.5781250000000000 Rh
   0.5000000000000008    0.5000000000000010    0.6093750000000000 Rh
   0.0000000000000007    0.0000000000000007    0.5156250000000000 Rh
   0.5000000000000008    0.5000000000000008    0.5468750000000000 Rh
   0.0000000000000006    0.0000000000000006    0.4531250000000000 Rh
   0.5000000000000007    0.5000000000000007    0.4843750000000000 Rh
   0.0000000000000005    0.0000000000000005    0.3906250000000000 Rh
   0.5000000000000006    0.5000000000000006    0.4218750000000000 Rh
   0.0000000000000005    0.0000000000000005    0.3281250000000000 Rh
   0.5000000000000004    0.5000000000000004    0.3593750000000000 Rh
   1.0000000000000004    0.0000000000000004    0.2656250000000000 Rh
   0.5000000000000004    0.5000000000000004    0.2968750000000000 Rh
   0.0000000000000003    1.0000000000000002    0.2031250000000000 Rh
   0.5000000000000003    0.5000000000000003    0.2343750000000000 Rh
