Rh
 1.0000000000000000
     2.7100452450505776    0.0000000000000000    0.0000000000000002
    -0.0000000000000001    2.7100452450507877   -0.0000000000001360
    -0.0000000000000627   -0.0000000000030050   62.1884581418794866
 Rh 
  26
Cartesian
 -0.0000000000000992  2.7100452450468642 59.1923724348117091
  1.3550226225251856  1.3550226225214739 60.9968242840045960
 -0.0000000000000864  2.7100452450476644 55.3349808632245015
  1.3550226225251936  1.3550226225217539 57.2629776836802478
 -0.0000000000000900 -0.0000000000024323 51.4624248141546730
  1.3550226225251993  1.3550226225227331 53.4008450603662510
 -0.0000000000000883 -0.0000000000022583 47.5855202221131535
  1.3550226225251718  1.3550226225230693 49.5239383084528271
 -0.0000000000000706 -0.0000000000021250 43.7087554525308306
  1.3550226225251958  1.3550226225231734 45.6471667591313448
  2.7100452450504631 -0.0000000000019547 39.8319944301807993
  1.3550226225251989  1.3550226225233317 41.7703493433021436
 -0.0000000000000601 -0.0000000000017649 35.9551814274395767
  1.3550226225251973  1.3550226225235293 37.8936126160413238
 -0.0000000000000753 -0.0000000000015745 32.0784447001795101
  1.3550226225252071  1.3550226225237170 34.0167996133003996
 -0.0000000000000769 -0.0000000000014210 28.2016272843510514
  1.3550226225251842  1.3550226225239039 30.1400385909513346
 -0.0000000000000661 -0.0000000000012952 24.3248557350294980
  1.3550226225251831  1.3550226225240256 26.2632738213693493
 -0.0000000000000700 -0.0000000000010397 20.4479489831158396
  1.3550226225252202  1.3550226225241593 22.3863692293274177
  2.7100452450504786 -0.0000000000001232 16.5858163598022799
  1.3550226225251683  1.3550226225247295 18.5138131802576495
 -0.0000000000000626  2.7100452450509431 12.8519697594779796
  1.3550226225252207  1.3550226225255464 14.6564216086714119
