Au
 1.0000000000000000
     2.9218430360859977   -0.0000000000000000    0.0000000000000002
     0.0000000000000001    2.9218430360872949   -0.0000000000005412
    -0.0000000000001734   -0.0000000000136999   67.7794023771304950
 Au 
  26
Cartesian
  2.9218430360860284 -0.0000000000129170 64.6922038787764819
  1.4609215180430699  1.4609215180301212 66.8201128522218397
  0.0000000000000999 -0.0000000000113024 60.4455099919831440
  1.4609215180430672  1.4609215180316939 62.5738760044308364
  0.0000000000001123 -0.0000000000111859 56.1922078801270359
  1.4609215180430613  1.4609215180324759 58.3186526921813240
  0.0000000000000716 -0.0000000000103806 51.9393470681355538
  1.4609215180431181  1.4609215180327302 54.0658043814688085
  0.0000000000000846  2.9218430360778993 47.6865010462725536
  1.4609215180430242  1.4609215180338124 49.8129485244788199
  2.9218430360861380 -0.0000000000086584 43.4336145325844640
  1.4609215180431090  1.4609215180345820 45.5601236125908500
  0.0000000000001296 -0.0000000000078019 39.1807809284254418
  1.4609215180431385  1.4609215180353945 41.3072593944210880
  0.0000000000001791 -0.0000000000069323 34.9279167102558077
  1.4609215180430968  1.4609215180363013 37.0544257902619236
  2.9218430360860239 -0.0000000000060867 30.6750917983672871
  1.4609215180431407  1.4609215180371611 32.8015392765731875
  0.0000000000002097 -0.0000000000051854 26.4222359413768153
  1.4609215180431290  1.4609215180379722 28.5486932547100416
  2.9218430360861172 -0.0000000000048413 22.1693876306644455
  1.4609215180431470  1.4609215180387785 24.2958324427183960
  0.0000000000001836 -0.0000000000041361 17.9141643184166810
  1.4609215180431652  1.4609215180388950 20.0425303308629843
  0.0000000000001899 -0.0000000000026358 13.6679274706272427
  1.4609215180431567  1.4609215180404387 15.7958364440718189
