Cu14
1.0
   2.5636948460759443    0.0000000000000000    0.0000000000000002
   0.0000000000000004    2.5636948460759443    0.0000000000000002
   0.0000000000000000    0.0000000000000000   36.2561202110660474
Cu
14
direct
   0.0000000000000009    1.0000000000000009    0.9249999999999999 Cu
   0.5000000000000011    0.5000000000000006    0.9750000000000000 Cu
   0.0000000000000008    1.0000000000000007    0.8250000000000000 Cu
   0.5000000000000010    0.5000000000000004    0.8750000000000000 Cu
   0.0000000000000007    1.0000000000000007    0.7250000000000001 Cu
   0.5000000000000009    0.5000000000000004    0.7750000000000000 Cu
   0.0000000000000007    1.0000000000000004    0.6250000000000000 Cu
   0.5000000000000008    0.5000000000000003    0.6749999999999999 Cu
   0.0000000000000006    1.0000000000000004    0.5250000000000000 Cu
   0.5000000000000007    0.5000000000000002    0.5750000000000000 Cu
   0.0000000000000005    1.0000000000000004    0.4250000000000000 Cu
   0.5000000000000007    0.5000000000000001    0.4750000000000000 Cu
   0.0000000000000004    1.0000000000000002    0.3250000000000000 Cu
   0.5000000000000006    0.5000000000000000    0.3750000000000000 Cu
