83

Fe     -5.303471615319358     -1.796899782959318      0.000000000000001
Fe     -5.303477716442686     -0.000000000000006     -1.796912169989722
Fe     -5.303477716442684     -0.000000000000006      1.796912169989724
Fe     -5.303471615319362      1.796899782959306      0.000000000000001
Fe     -1.862092746052628     -5.306501365104483      0.000000000000001
Fe     -3.636268016385995     -1.906810142307103     -1.906835776666904
Fe     -1.899229845805937     -3.642059782081452     -1.903585758149823
Fe     -1.899242751408407     -1.903567796156498     -3.642117646228137
Fe     -3.545720388908492     -3.535149610305667      0.000000000000001
Fe     -3.636268016385994     -1.906810142307102      1.906835776666905
Fe     -1.899229845805937     -3.642059782081451      1.903585758149824
Fe     -1.642615777475490     -1.669373745139439      0.000000000000001
Fe     -1.899242751408407     -1.903567796156498      3.642117646228139
Fe     -1.862106700788612     -0.000000000000004     -5.306569726919798
Fe     -3.545747613205746     -0.000000000000005     -3.535209698906718
Fe     -3.636268016385998      1.906810142307094     -1.906835776666905
Fe     -1.642626174060113     -0.000000000000003     -1.669416776290914
Fe     -1.899242751408408      1.903567796156489     -3.642117646228137
Fe     -3.378288631913634     -0.000000000000003     -0.000000000000000
Fe     -3.636268016385996      1.906810142307093      1.906835776666906
Fe     -1.642626174060115     -0.000000000000003      1.669416776290915
Fe     -1.642615777475491      1.669373745139435      0.000000000000001
Fe     -3.545747613205746     -0.000000000000005      3.535209698906721
Fe     -1.862106700788612     -0.000000000000005      5.306569726919799
Fe     -1.899242751408409      1.903567796156490      3.642117646228140
Fe     -1.899229845805938      3.642059782081442     -1.903585758149823
Fe     -3.545720388908497      3.535149610305657      0.000000000000001
Fe     -1.899229845805939      3.642059782081444      1.903585758149826
Fe     -1.862092746052630      5.306501365104473      0.000000000000001
Fe      0.000000000000001     -5.309324073791782     -1.857449863111330
Fe      0.000000000000003     -6.994402217133215      0.000000000000001
Fe      0.000000000000000     -5.309324073791782      1.857449863111332
Fe      1.862092746052628     -5.306501365104480      0.000000000000001
Fe     -0.000000000000001     -1.857441796646878     -5.309385973094374
Fe     -0.000000000000000     -3.539207393755473     -3.539248095602468
Fe     -0.000000000000001     -1.666945274884057     -1.666978756817256
Fe      1.899229845805936     -3.642059782081449     -1.903585758149823
Fe      1.899242751408407     -1.903567796156498     -3.642117646228138
Fe     -0.000000000000002     -3.415200623990763      0.000000000000001
Fe     -0.000000000000001     -1.666945274884057      1.666978756817258
Fe      1.899229845805937     -3.642059782081450      1.903585758149825
Fe      1.642615777475489     -1.669373745139440      0.000000000000001
Fe     -0.000000000000000     -3.539207393755475      3.539248095602470
Fe     -0.000000000000000     -1.857441796646879      5.309385973094374
Fe      1.899242751408408     -1.903567796156500      3.642117646228140
Fe     -0.000000000000002     -0.000000000000004     -6.994473014467444
Fe     -0.000000000000001      1.857441796646870     -5.309385973094375
Fe      1.862106700788610     -0.000000000000003     -5.306569726919800
Fe     -0.000000000000000     -0.000000000000004     -3.415263579853173
Fe     -0.000000000000000      1.666945274884050     -1.666978756817256
Fe      1.642626174060112     -0.000000000000004     -1.669416776290913
Fe      1.899242751408406      1.903567796156490     -3.642117646228138
Fe     -0.000000000000001     -0.000000000000003      0.000000000000001
Fe     -0.000000000000001      1.666945274884050      1.666978756817258
Fe      1.642626174060113     -0.000000000000004      1.669416776290916
Fe      1.642615777475490      1.669373745139432      0.000000000000001
Fe     -0.000000000000001     -0.000000000000004      3.415263579853174
Fe     -0.000000000000001      1.857441796646869      5.309385973094374
Fe      1.862106700788611     -0.000000000000005      5.306569726919798
Fe      1.899242751408408      1.903567796156491      3.642117646228139
Fe      0.000000000000000     -0.000000000000005      6.994473014467444
Fe     -0.000000000000001      3.539207393755466     -3.539248095602469
Fe     -0.000000000000001      5.309324073791772     -1.857449863111330
Fe      1.899229845805936      3.642059782081443     -1.903585758149823
Fe      0.000000000000000      3.415200623990757      0.000000000000002
Fe     -0.000000000000001      5.309324073791774      1.857449863111332
Fe      1.899229845805937      3.642059782081444      1.903585758149825
Fe      1.862092746052628      5.306501365104473      0.000000000000001
Fe     -0.000000000000001      3.539207393755465      3.539248095602470
Fe     -0.000000000000002      6.994402217133207      0.000000000000001
Fe      3.636268016385994     -1.906810142307101     -1.906835776666904
Fe      3.545720388908494     -3.535149610305666      0.000000000000001
Fe      3.636268016385995     -1.906810142307102      1.906835776666906
Fe      5.303471615319361     -1.796899782959315      0.000000000000000
Fe      3.545747613205744     -0.000000000000003     -3.535209698906719
Fe      3.636268016385993      1.906810142307094     -1.906835776666904
Fe      5.303477716442684     -0.000000000000003     -1.796912169989724
Fe      3.378288631913634     -0.000000000000004      0.000000000000001
Fe      3.636268016385996      1.906810142307096      1.906835776666906
Fe      5.303477716442687     -0.000000000000004      1.796912169989725
Fe      5.303471615319360      1.796899782959308      0.000000000000000
Fe      3.545747613205745     -0.000000000000004      3.535209698906718
Fe      3.545720388908494      3.535149610305659      0.000000000000001
