Cu
 1.0000000000000000
     2.4977335384509751   -0.0000000000000000    0.0000000000000002
     0.0000000000000002    2.4977335384509991    0.0000000000000215
    -0.0000000000000121    0.0000000000004093   22.9178054485810208
 Cu 
   6
Cartesian
  0.0000000000000022  2.4977335384512673 20.0097011071871549
  1.2488667692254802  1.2488667692256821 21.8694162205303932
  0.0000000000000011  2.4977335384512989 16.2469106023149266
  1.2488667692254778  1.2488667692257800 18.1297975705564411
  0.0000000000000010  2.4977335384513810 12.5072919523411681
  1.2488667692254818  1.2488667692258204 14.3670070656842004
