Cu24
1.0
   2.5636948460759439    0.0000000000000000    0.0000000000000002
   1.2818474230379713    2.2202248642530038    0.0000000000000002
   0.0000000000000000    0.0000000000000000   60.7041942145282221
Cu
24
direct
   0.9999999999999979    0.9999999999999980    0.9827586206896550 Cu
   0.3333333333333312    0.3333333333333313    0.9482758620689653 Cu
   0.6666666666666651    0.6666666666666647    0.9137931034482757 Cu
   0.9999999999999990    0.9999999999999986    0.8793103448275862 Cu
   0.3333333333333321    0.3333333333333318    0.8448275862068965 Cu
   0.6666666666666642    0.6666666666666651    0.8103448275862067 Cu
   0.9999999999999982    0.9999999999999994    0.7758620689655171 Cu
   0.3333333333333320    0.3333333333333324    0.7413793103448274 Cu
   0.6666666666666647    0.6666666666666657    0.7068965517241378 Cu
   0.9999999999999986    0.9999999999999990    0.6724137931034481 Cu
   0.3333333333333320    0.3333333333333313    0.6379310344827585 Cu
   0.6666666666666665    0.6666666666666656    0.6034482758620690 Cu
   1.0000000000000002    1.0000000000000002    0.5689655172413793 Cu
   0.3333333333333330    0.3333333333333325    0.5344827586206896 Cu
   0.6666666666666657    0.6666666666666675    0.5000000000000001 Cu
   1.0000000000000007    0.9999999999999993    0.4655172413793104 Cu
   0.3333333333333358    0.3333333333333313    0.4310344827586207 Cu
   0.6666666666666667    0.6666666666666663    0.3965517241379312 Cu
   1.0000000000000022    1.0000000000000013    0.3620689655172416 Cu
   0.3333333333333322    0.3333333333333335    0.3275862068965518 Cu
   0.6666666666666659    0.6666666666666641    0.2931034482758622 Cu
   0.9999999999999996    0.9999999999999993    0.2586206896551725 Cu
   0.3333333333333349    0.3333333333333340    0.2241379310344828 Cu
   0.6666666666666667    0.6666666666666667    0.1896551724137933 Cu
