Cu
 1.0000000000000000
     2.5508920544281977    0.0000000000000000    0.0000000000000002
     0.0000000000000000    3.6123103325762971    0.0000000000004958
    -0.0000000000000131    0.0000000000042238   36.2046947419960503
 Cu 
  20
Cartesian
  1.9131690408211994  3.6123103325765173  1.9684510380111315
  0.6377230136070906  1.8061551662883519  0.7847450310899167
  1.9131690408212032  3.6123103325769774  4.5643628329978299
  0.6377230136071078  1.8061551662886934  3.2864248780648775
  1.9131690408211819  3.6123103325773998  7.1385404049137566
  0.6377230136070804  1.8061551662891995  5.8495684457922605
  1.9131690408212214  3.6123103325778079  9.7126787749975012
  0.6377230136071113  1.8061551662896012  8.4254336845801685
  1.9131690408211930  0.0000000000015951 12.2866228091314156
  0.6377230136071064  1.8061551662898243 10.9995874788724493
  1.9131690408212014  3.6123103325778994 14.8609087654109384
  0.6377230136070936  1.8061551662897908 13.5738734351517465
  1.9131690408212010  3.6123103325780908 17.4350625597035140
  0.6377230136071016  1.8061551662898370 16.1478174692858651
  1.9131690408212001  0.0000000000021928 20.0109277984902256
  0.6377230136070977  1.8061551662901920 18.7219558393694676
  1.9131690408211914  3.6123103325790402 22.5740713662185932
  0.6377230136070975  1.8061551662906445 21.2961334112854104
  1.9131690408211908  3.6123103325793413 25.0757512131933353
  0.6377230136070865  1.8061551662911213 23.8920452062721296
