Cu
 1.0000000000000000
     2.5269375902884779    0.0000000000000000    0.0000000000000002
     1.2634687951442383    2.1883921469677032   -0.0000000000000122
     0.0000000000000022   -0.0000000000002481   21.5458846027403084
 Cu 
   5
Cartesian
  2.5269375902884788  1.4589280979784176  1.1580267986629194
  3.7904063854326973  2.1883921469676406  3.2764226531872285
  1.2634687951442400  0.7294640489891533  5.3864711506850336
  2.5269375902884814  1.4589280979783588  7.4965196481828755
  3.7904063854326995  2.1883921469675789  9.6149155027071753
