Fe
 1.0000000000000000
     2.5110708422612653    0.0000000000000000    0.0000000000000003
    -0.0000000000000021    2.5110708422627588    0.0000000000000652
    -0.0000000000000213    0.0000000000017266   29.4829833752548574
 Fe 
   8
Cartesian
 -0.0000000000000457  0.0000000000000756  2.6768337016733343
  1.2555354211305965  1.2555354211313581  0.8647114899944309
 -0.0000000000000471  0.0000000000003837  6.4561962491687730
  1.2555354211306069  1.2555354211316883  4.6015555623406499
 -0.0000000000000428  0.0000000000005514 10.1399361252868303
  1.2555354211306107  1.2555354211318546  8.2852954384587800
 -0.0000000000000422  0.0000000000008621 13.8767801976329341
  1.2555354211305993  1.2555354211321421 12.0646579859540726
