Ni25
1.0
   2.4822082623485779    0.0000000000000000    0.0000000000000002
  -1.2411041311742883    2.1496554126774976    0.0000000000000002
   0.0000000000000000    0.0000000000000000   60.8014367807449858
Ni
25
direct
   0.6666666666666666    0.3333333333333334    0.0166666666666667 Ni
   0.0000000000000002    1.0000000000000000    0.0500000000000000 Ni
   0.3333333333333329    0.6666666666666663    0.0833333333333333 Ni
   0.6666666666666665    0.3333333333333330    0.1166666666666666 Ni
   0.0000000000000005    1.0000000000000002    0.1499999999999999 Ni
   0.3333333333333328    0.6666666666666662    0.1833333333333333 Ni
   0.6666666666666667    0.3333333333333328    0.2166666666666666 Ni
   0.0000000000000008    1.0000000000000000    0.2500000000000000 Ni
   0.3333333333333330    0.6666666666666662    0.2833333333333333 Ni
   0.6666666666666671    0.3333333333333331    0.3166666666666666 Ni
   0.0000000000000011    1.0000000000000002    0.3499999999999999 Ni
   0.3333333333333315    0.6666666666666654    0.3833333333333332 Ni
   0.6666666666666691    0.3333333333333334    0.4166666666666666 Ni
   0.0000000000000014    0.9999999999999996    0.4500000000000000 Ni
   0.3333333333333336    0.6666666666666657    0.4833333333333333 Ni
   0.6666666666666694    0.3333333333333337    0.5166666666666666 Ni
   0.0000000000000052    0.0000000000000016    0.5499999999999998 Ni
   0.3333333333333340    0.6666666666666661    0.5833333333333333 Ni
   0.6666666666666662    0.3333333333333323    0.6166666666666666 Ni
   0.0000000000000020    1.0000000000000002    0.6499999999999999 Ni
   0.3333333333333343    0.6666666666666663    0.6833333333333332 Ni
   0.6666666666666664    0.3333333333333326    0.7166666666666665 Ni
   0.9999999999999988    0.9999999999999988    0.7499999999999998 Ni
   0.3333333333333416    0.6666666666666702    0.7833333333333332 Ni
   0.6666666666666738    0.3333333333333346    0.8166666666666665 Ni
