Ni42
1.0
   2.4822082623485779    0.0000000000000000    0.0000000000000002
   0.0000000000000006    3.5103725892479125    0.0000000000000002
   0.0000000000000000    0.0000000000000000   64.5374148210630239
Ni
42
direct
   0.2500000000000000    1.0000000000000000    0.0288461538461539 Ni
   0.7500000000000000    0.5000000000000000    0.0096153846153846 Ni
   0.2499999999999997    1.0000000000000000    0.0673076923076923 Ni
   0.7500000000000001    0.5000000000000000    0.0480769230769231 Ni
   0.2499999999999997    1.0000000000000002    0.1057692307692308 Ni
   0.7500000000000001    0.5000000000000001    0.0865384615384615 Ni
   0.2499999999999998    1.0000000000000002    0.1442307692307692 Ni
   0.7499999999999998    0.5000000000000001    0.1250000000000000 Ni
   0.2499999999999994    1.0000000000000002    0.1826923076923077 Ni
   0.7500000000000002    0.5000000000000001    0.1634615384615385 Ni
   0.2500000000000003    0.0000000000000002    0.2211538461538462 Ni
   0.7500000000000003    0.5000000000000002    0.2019230769230769 Ni
   0.2499999999999995    1.0000000000000002    0.2596153846153846 Ni
   0.7499999999999994    0.5000000000000002    0.2403846153846154 Ni
   0.2499999999999996    1.0000000000000004    0.2980769230769231 Ni
   0.7499999999999996    0.5000000000000003    0.2788461538461539 Ni
   0.2499999999999988    1.0000000000000004    0.3365384615384616 Ni
   0.7500000000000006    0.5000000000000003    0.3173076923076923 Ni
   0.2500000000000006    1.0000000000000004    0.3750000000000001 Ni
   0.7499999999999988    0.5000000000000004    0.3557692307692308 Ni
   0.2499999999999989    0.0000000000000005    0.4134615384615385 Ni
   0.7499999999999989    0.5000000000000004    0.3942307692307693 Ni
   0.2500000000000007    0.0000000000000005    0.4519230769230769 Ni
   0.7499999999999989    0.5000000000000004    0.4326923076923077 Ni
   0.2499999999999990    1.0000000000000004    0.4903846153846154 Ni
   0.7499999999999990    0.5000000000000006    0.4711538461538462 Ni
   0.2499999999999991    1.0000000000000007    0.5288461538461540 Ni
   0.7500000000000008    0.5000000000000006    0.5096153846153847 Ni
   0.2500000000000009    1.0000000000000007    0.5673076923076924 Ni
   0.7500000000000009    0.5000000000000007    0.5480769230769231 Ni
   0.2500000000000009    1.0000000000000007    0.6057692307692307 Ni
   0.7500000000000027    0.5000000000000008    0.5865384615384615 Ni
   0.2500000000000010    1.0000000000000007    0.6442307692307693 Ni
   0.7500000000000010    0.5000000000000007    0.6249999999999999 Ni
   0.2500000000000011    1.0000000000000007    0.6826923076923077 Ni
   0.7500000000000011    0.5000000000000008    0.6634615384615385 Ni
   0.2500000000000012    1.0000000000000009    0.7211538461538463 Ni
   0.7500000000000047    0.5000000000000008    0.7019230769230769 Ni
   0.2500000000000012    1.0000000000000009    0.7596153846153846 Ni
   0.7500000000000012    0.5000000000000009    0.7403846153846153 Ni
   0.2499999999999978    1.0000000000000009    0.7980769230769230 Ni
   0.7499999999999977    0.5000000000000009    0.7788461538461540 Ni
