Ni30
1.0
   2.4822082623485779    0.0000000000000000    0.0000000000000002
   0.0000000000000004    2.4822082623485779    0.0000000000000002
   0.0000000000000000    0.0000000000000000   63.1867066064624225
Ni
30
direct
   0.0000000000000015    1.0000000000000016    0.9583333333333334 Ni
   0.5000000000000016    0.5000000000000016    0.9861111111111112 Ni
   0.0000000000000014    0.0000000000000014    0.9027777777777778 Ni
   0.5000000000000014    0.5000000000000014    0.9305555555555556 Ni
   0.0000000000000013    0.0000000000000013    0.8472222222222222 Ni
   0.5000000000000013    0.5000000000000013    0.8750000000000001 Ni
   0.0000000000000012    0.0000000000000012    0.7916666666666667 Ni
   0.5000000000000013    0.5000000000000013    0.8194444444444445 Ni
   0.0000000000000011    0.0000000000000011    0.7361111111111112 Ni
   0.5000000000000012    0.5000000000000011    0.7638888888888888 Ni
   0.0000000000000011    1.0000000000000011    0.6805555555555556 Ni
   0.5000000000000011    0.5000000000000011    0.7083333333333333 Ni
   0.0000000000000010    0.0000000000000010    0.6250000000000000 Ni
   0.5000000000000010    0.5000000000000010    0.6527777777777778 Ni
   0.0000000000000009    0.0000000000000009    0.5694444444444445 Ni
   0.5000000000000009    0.5000000000000009    0.5972222222222222 Ni
   0.0000000000000008    1.0000000000000009    0.5138888888888888 Ni
   0.5000000000000009    0.5000000000000009    0.5416666666666666 Ni
   0.0000000000000007    0.0000000000000007    0.4583333333333334 Ni
   0.5000000000000008    0.5000000000000008    0.4861111111111112 Ni
   1.0000000000000007    0.0000000000000006    0.4027777777777778 Ni
   0.5000000000000007    0.5000000000000007    0.4305555555555555 Ni
   0.0000000000000005    1.0000000000000004    0.3472222222222222 Ni
   0.5000000000000006    0.5000000000000006    0.3750000000000000 Ni
   0.0000000000000005    1.0000000000000004    0.2916666666666667 Ni
   0.5000000000000004    0.5000000000000004    0.3194444444444445 Ni
   0.0000000000000004    1.0000000000000004    0.2361111111111110 Ni
   0.5000000000000004    0.5000000000000003    0.2638888888888890 Ni
   0.0000000000000003    0.0000000000000003    0.1805555555555555 Ni
   0.5000000000000003    0.5000000000000003    0.2083333333333334 Ni
