Ni
 1.0000000000000000
     2.4752725626886658    0.0000000000000000    0.0000000000000002
     0.0000000000000000    2.4752725626866749   -0.0000000000001851
    -0.0000000000000124   -0.0000000000007897   63.5413003372453957
 Ni 
  30
Cartesian
 -0.0000000000000504  2.4752725626857068 60.8484775483865263
  1.2376362813442772  1.2376362813423050 62.5458542356738008
 -0.0000000000000477 -0.0000000000006136 57.3181453749144083
  1.2376362813442838  1.2376362813425963 59.0774231657509077
 -0.0000000000000504 -0.0000000000007511 53.7991533204238195
  1.2376362813442814  1.2376362813426887 55.5601580437286842
 -0.0000000000000440 -0.0000000000008199 50.2766916518225244
  1.2376362813442856  1.2376362813425097 52.0380186197594838
 -0.0000000000000411 -0.0000000000006898 46.7537655319351870
  1.2376362813442845  1.2376362813425750 48.5152068005288157
 -0.0000000000000548  2.4752725626860461 43.2308093675564606
  1.2376362813442863  1.2376362813426873 44.9922901107078275
 -0.0000000000000473 -0.0000000000006155 39.7078999115917100
  1.2376362813442789  1.2376362813427282 41.4694131818866225
 -0.0000000000000427 -0.0000000000005819 36.1850971330903732
  1.2376362813442847  1.2376362813427160 37.9464199270304050
 -0.0000000000000636  2.4752725626861571 32.6621038782342765
  1.2376362813442796  1.2376362813427979 34.4236171485291820
 -0.0000000000000407 -0.0000000000005015 29.1392269494135405
  1.2376362813442774  1.2376362813428337 30.9007076925645805
  2.4752725626885983 -0.0000000000004259 25.6163102595925380
  1.2376362813442792  1.2376362813428559 27.3777515281862485
 -0.0000000000000322  2.4752725626863281 22.0934984403611701
  1.2376362813442841  1.2376362813429718 23.8548254082985878
 -0.0000000000000547  2.4752725626861696 18.5713590163918632
  1.2376362813442838  1.2376362813429325 20.3323637396968628
 -0.0000000000000407  2.4752725626862513 15.0540938943700109
  1.2376362813442876  1.2376362813427910 16.8133716852064730
 -0.0000000000000395 -0.0000000000001312 11.5856628244475317
  1.2376362813442909  1.2376362813431465 13.2830395117345450
