Zr20
1.0
   3.2112877764595984    0.0000000000000000    0.0000000000000002
  -1.6056438882297983    2.7810567932764565    0.0000000000000002
   0.0000000000000000    0.0000000000000000   63.1392250416950844
Zr
20
direct
   0.3333333333333335    0.6666666666666666    0.0208333333333333 Zr
   0.6666666666666669    0.3333333333333336    0.0625000000000000 Zr
   0.3333333333333337    0.6666666666666669    0.1041666666666666 Zr
   0.6666666666666671    0.3333333333333338    0.1458333333333333 Zr
   0.3333333333333339    0.6666666666666671    0.1875000000000000 Zr
   0.6666666666666673    0.3333333333333340    0.2291666666666667 Zr
   0.3333333333333341    0.6666666666666673    0.2708333333333333 Zr
   0.6666666666666675    0.3333333333333342    0.3125000000000000 Zr
   0.3333333333333343    0.6666666666666675    0.3541666666666666 Zr
   0.6666666666666677    0.3333333333333344    0.3958333333333333 Zr
   0.3333333333333345    0.6666666666666676    0.4374999999999999 Zr
   0.6666666666666679    0.3333333333333346    0.4791666666666666 Zr
   0.3333333333333347    0.6666666666666679    0.5208333333333334 Zr
   0.6666666666666681    0.3333333333333348    0.5625000000000000 Zr
   0.3333333333333349    0.6666666666666681    0.6041666666666667 Zr
   0.6666666666666683    0.3333333333333350    0.6458333333333334 Zr
   0.3333333333333351    0.6666666666666683    0.6874999999999999 Zr
   0.6666666666666685    0.3333333333333352    0.7291666666666666 Zr
   0.3333333333333353    0.6666666666666685    0.7708333333333333 Zr
   0.6666666666666687    0.3333333333333354    0.8125000000000000 Zr
