Zr
 1.0000000000000000
     3.2105129623480972    0.0000000000000002    0.0000000000000002
    -1.6052564811740475    2.7803857845767030   -0.0000000000002375
     0.0000000000000408   -0.0000000000051653   63.1697043430486644
 Zr 
  20
Cartesian
 -0.0000000000000952  1.8535905230527259  1.3954663042729305
  1.6052564811740910  0.9267952615200417  3.9312552607298548
 -0.0000000000000612  1.8535905230544396  6.5956516367292775
  1.6052564811740433  0.9267952615215176  9.2140417219566704
 -0.0000000000000696  1.8535905230537297 11.8482980070738346
  1.6052564811740535  0.9267952615207858 14.4788078049576274
 -0.0000000000000878  1.8535905230532228 17.1106790503706101
  1.6052564811740586  0.9267952615203028 19.7419545727543451
 -0.0000000000000528  1.8535905230527980 22.3734530723481235
  1.6052564811740482  0.9267952615198521 25.0051165911044713
 -0.0000000000000490  1.8535905230523730 27.6363036947706071
  1.6052564811740826  0.9267952615194469 30.2679672135270188
 -0.0000000000000726  1.8535905230519147 32.8994657131219128
  1.6052564811740890  0.9267952615190160 35.5307412355057295
 -0.0000000000000501  1.8535905230514427 38.1626124809170122
  1.6052564811740651  0.9267952615184852 40.7931222788011070
 -0.0000000000000261  1.8535905230507050 43.4273785639167400
  1.6052564811740799  0.9267952615178299 46.0457686491455576
 -0.0000000000000427  1.8535905230521825 48.7101650251470062
  1.6052564811740866  0.9267952615195143 51.2459539816020069
