Ag
 1.0000000000000000
     2.9364717150187709    0.0000000000000000    0.0000000000000003
    -0.0000000000000000    9.6124366989591259   -0.0000000000053768
     0.0000000000031899   -0.0000000000337654   61.5879987702881522
 Ag 
  80
Cartesian
 -0.7341179287551569  0.0046660084880965  1.3437206758252922
 -0.7341179287551471  4.8015523409782084  1.3437206758221840
  0.7341179287542436  2.4031091747333990  2.1057775046359999
  0.7341179287542255  7.2093275242125392  0.6343409390674108
 -2.2023537862646068  0.0246562928851151  3.8969589582957034
 -2.2023537862646081  4.7815620565812491  3.8969589582927946
 -0.7341179287552059  2.4031091747332343  4.7444866625144417
 -0.7341179287552162  7.2093275242127532  3.1164381636259537
 -3.6705896437740462  0.0043435983997934  6.4616654980498298
 -3.6705896437740475  4.8018747510657285  6.4616654980470960
 -2.2023537862646236  2.4031091747326072  7.3154801650761945
 -2.2023537862646747  7.2093275242124273  5.6405364153451663
 -5.1388255012834865  0.0025424653982402  9.0224426552032515
 -5.1388255012835016  4.8036758840658083  9.0224426552005799
 -3.6705896437740733  2.4031091747318070  9.8802201958061691
 -3.6705896437740981  7.2093275242118535  8.1790943853530198
 -6.6070613587929721  0.0011082362688020 11.5827592705771973
 -6.6070613587930014  4.8051101131934333 11.5827592705745168
 -5.1388255012835398  2.4031091747308260 12.4424240792211354
 -5.1388255012835451  7.2093275242110346 10.7296393350725001
 -8.0752972163025003  0.0006402092735703 14.1425486168054650
 -8.0752972163025074  4.8055781401866478 14.1425486168026922
 -6.6070613587930014  2.4031091747298157 15.0032612343650289
 -6.6070613587930236  7.2093275242100967 13.2850464295854120
 -9.5435330738119593  0.0002666916385739 16.7022630462444468
 -9.5435330738119948  4.8059516578196062 16.7022630462415620
 -8.0752972163025003  2.4031091747287872 17.5635927613510958
 -8.0752972163025252  7.2093275242090682 15.8426515087521782
 -11.0117689313214679  0.0000768899895758 19.2620153897926727
 -11.0117689313215354  4.8061414594663985 19.2620153897898803
 -9.5435330738121316  2.4031091747276925 20.1235076986267352
 -9.5435330738121475  7.2093275242079633 18.4012681576683583
 -12.4800047888309766  0.0000247029632404 21.8219379864472067
 -12.4800047888309731  4.8061936464904491 21.8219379864444427
 -11.0117689313216474  2.4031091747264810 22.6835154077275298
 -11.0117689313216864  7.2093275242068380 20.9606937187378151
 -13.9482406463405653  0.0000790429390861 24.3817297192280229
 -13.9482406463405653  4.8061393065121019 24.3817297192253477
 -12.4800047888311862  2.4031091747252740 25.2432187912597783
 -12.4800047888313372  7.2093275242055981 23.5201990571601129
 -15.4164765038500899 -0.0000790429686579 26.9416025893450239
 -15.4164765038501343  4.8062973924174432 26.9416025893425193
 -13.9482406463407145  2.4031091747240394 27.8031332514075693
 -13.9482406463407358  7.2093275242043413 26.0801135173079430
 -16.8847123613597283 -0.0000247029927483 29.5013943221259005
 -16.8847123613597283  4.8062430524391404 29.5013943221233568
 -15.4164765038503422  2.4031091747227609 30.3626385898299525
 -15.4164765038503369  7.2093275242031813 28.6398169008402235
 -18.3529482188692725 -0.0000768900192146 32.0613169187804843
 -18.3529482188692725  4.8062952394631777 32.0613169187778340
 -16.8847123613598669  2.4031091747215512 32.9220641508994731
 -16.8847123613599308  7.2093275242020480 31.1998246099410608
 -19.8211840763786107 -0.0002666916681914 34.6210692623289447
 -19.8211840763786107  4.8064850411098767 34.6210692623259391
 -18.3529482188692654  2.4031091747205156 35.4806807998157865
 -18.3529482188692690  7.2093275242008552 33.7597395472169239
 -21.2894199338883752 -0.0006402093032054 37.1807836917677150
 -21.2894199338883752  4.8068585587427606 37.1807836917650150
 -19.8211840763789908  2.4031091747196016 38.0382858789825988
 -19.8211840763791294  7.2093275241996482 36.3200710742029642
 -22.7576557913978057 -0.0011082362983995 39.7405730379959294
 -22.7576557913978057  4.8073265857361642 39.7405730379932649
 -21.2894199338883396  2.4031091747186233 40.5936929734953509
 -21.2894199338884320  7.2093275241987120 38.8809082293468720
 -24.2258916489071225 -0.0025424654278926 42.3008896533698717
 -24.2258916489071225  4.8087608148637857 42.3008896533673706
 -22.7576557913975535  2.4031091747178048 43.1442379232145043
 -22.7576557913977773  7.2093275241978763 41.4431121127618596
 -25.6941275064164607 -0.0043435984294773 44.8616668105234666
 -25.6941275064164607  4.8105619478638610 44.8616668105207381
 -24.2258916489071190  2.4031091747171196 45.6827958932222984
 -24.2258916489072469  7.2093275241969961 44.0078521434917178
 -27.1623633639262998 -0.0246562929146593 47.4263733502775295
 -27.1623633639262998  4.8308746423481530 47.4263733502750284
 -25.6941275064167591  2.4031091747168474 48.2068941449415433
 -25.6941275064169652  7.2093275241964978 46.5788456460534377
 -28.6305992214359577 -0.0046660085177233 49.9796116327480320
 -28.6305992214359577  4.8108843579512452 49.9796116327455877
 -27.1623633639265591  2.4031091747170268 50.6889913695002718
 -27.1623633639265947  7.2093275241961576 49.2175548039318471
