Cu
 1.0000000000000000
     2.5465615918799767    0.0000000000000000    0.0000000000000002
    -0.0000000000000000    2.5465615918800331    0.0000000000002416
    -0.0000000000000285    0.0000000000128078   62.4675598158474799
 Cu 
  28
Cartesian
  0.0000000000000125  2.5465615918932967 59.6365087584281497
  1.2732807959400099  1.2732807959528658 61.4434441195964354
  0.0000000000000109  2.5465615918941600 55.9738454074402370
  1.2732807959400034  1.2732807959537618 57.8042460360793555
  0.0000000000000175  2.5465615918941471 52.3108642212586403
  1.2732807959400174  1.2732807959542305 54.1420669936951526
  0.0000000000000216  2.5465615918923907 48.6485200877215931
  1.2732807959400110  1.2732807959535459 50.4797435034543369
  0.0000000000000226  2.5465615918901352 44.9861089295088874
  1.2732807959400316  1.2732807959510926 46.8173877368773219
  0.0000000000000160  2.5465615918889077 41.3237395675550943
  1.2732807959400143  1.2732807959494197 43.1549579743951099
  0.0000000000000263  2.5465615918880773 37.6611825780738627
  1.2732807959400130  1.2732807959483576 39.4924771460389650
  0.0000000000000164  2.5465615918875031 33.9987696961344881
  1.2732807959400299  1.2732807959477954 35.8300642640999314
  0.0000000000000271  2.5465615918864226 30.3362888677775970
  1.2732807959400232  1.2732807959469261 32.1675072746178117
  0.0000000000000272  2.5465615918846987 26.6738591052962910
  1.2732807959400154  1.2732807959457006 28.5051379126639155
  0.0000000000000206  2.5465615918822979 23.0115033387200150
  1.2732807959400254  1.2732807959434307 24.8427267544522650
  0.0000000000000318  2.5465615918815465 19.3491798484783004
  1.2732807959400170  1.2732807959416685 21.1803826209151715
  0.0000000000000306  2.5465615918819657 15.6870008060941544
  1.2732807959400143  1.2732807959416261 17.5174014347327649
  0.0000000000000286  2.5465615918829472 12.0478027225779112
  1.2732807959400103  1.2732807959424484 13.8547380837454472
