Fe
 1.0000000000000000
     4.0398671159080353   -0.0000000000000002   -0.0000000000000001
     2.0199335579540132    3.4986275502870936   -0.0000000000018201
    -0.0000000000057269   -0.0000000000267627   62.4767139903733550
 Fe 
  62
Cartesian
 -1.5149501684645303 -0.8746568875714806  1.1645520566215384
  2.5249169474437552  1.4577614792861611  0.3562457308751248
 -3.5348837264182937 -2.0408660710003619  2.8210534567276486
  0.5049833894898197  0.2915522958571922  1.7787281800732417
 -5.5548172843722332 -3.2070752544292342  4.4127206177309484
 -1.5149501684642370 -0.8746568875711641  3.6764448954103783
 -7.5747508423262158 -4.3732844378590299  6.1289672593272764
 -3.5348837264181885 -2.0408660710004156  5.2951640589242661
 -9.5946844002801406 -5.5394936212897914  7.7775744756037604
 -5.5548172843721471 -3.2070752544307193  6.9322293734081093
 -11.6146179582338860 -6.7057028047210183  9.4153391912425644
 -7.5747508423259937 -4.3732844378618649  8.5996594903747763
 -13.6345515161874271 -7.8719119881521324 11.0680721804382376
 -9.5946844002796343 -5.5394936212930910 10.2451550566280982
 -15.6544850741409736 -9.0381211715827341 12.7156692312247248
 -11.6146179582331506 -6.7057028047239537 11.8896858633416667
 -17.6744186320947314 -10.2043303550128517 14.3622053233796443
 -13.6345515161867965 -7.8719119881542889 13.5391454573335839
 -19.6943521900488427 -11.3705395384426797 16.0104025416537610
 -15.6544850741407569 -9.0381211715842156 15.1866513046235170
 -21.7142857480029221 -12.5367487218724545 17.6580151237818690
 -17.6744186320948415 -10.2043303550140187 16.8339515269687929
 -23.7342193059567350 -13.7029579053023340 19.3054051633054478
 -19.6943521900488747 -11.3705395384438468 18.4817539474754930
 -25.7541528639102779 -14.8691670887322420 20.9531837380654942
 -21.7142857480025313 -12.5367487218737352 20.1293736363929590
 -27.7740864218635863 -16.0353762721621109 22.6008112421507796
 -23.7342193059559570 -13.7029579053036574 21.7769205786912003
 -29.7940199798169729 -17.2015854555919248 24.2481631099549055
 -25.7541528639092725 -14.8691670887334695 23.4244438647615318
 -31.8139535377705442 -18.3677946390216995 25.8957017108099379
 -27.7740864218626875 -16.0353762721632691 25.0721439129363404
 -33.8338870957244637 -19.5340038224516661 27.5434017589846292
 -29.7940199798163334 -17.2015854555931575 26.7196825137912768
 -35.8538206536785822 -20.7002130058819311 29.1909250450550601
 -31.8139535377704163 -18.3677946390231916 28.3670343815954169
 -37.8737542116326082 -21.8664221893122566 30.8384719873532802
 -33.8338870957246840 -19.5340038224534389 30.0146618856807450
 -39.8936877695864354 -23.0326313727424470 32.4860916762706822
 -35.8538206536785964 -20.7002130058838141 31.6624404604407061
 -41.9136213275399001 -24.1988405561724136 34.1338940967774676
 -37.8737542116320398 -21.8664221893139086 33.3098304999643133
 -43.9335548854932938 -25.3650497396019539 35.7811943191226192
 -39.8936877695854761 -23.0326313727435839 34.9574430820924036
 -45.9534884434471351 -26.5312589230314799 37.4287001664125256
 -41.9136213275391825 -24.1988405561731383 36.6056403003664101
 -47.9734220014012749 -27.6974681064614074 39.0781597604044109
 -43.9335548854931801 -25.3650497396028243 38.2521763925214486
 -49.9933555593556065 -28.8636772898920384 40.7226905671180432
 -45.9534884434475046 -26.5312589230331568 39.8997734433079572
 -52.0132891173098884 -30.0298864733229962 42.3681861333714949
 -47.9734220014017012 -27.6974681064640187 41.5525064325036055
 -54.0332226752637581 -31.1960956567535952 44.0356162503381370
 -49.9933555593556775 -28.8636772898948202 43.1902711481424575
 -56.0531562332175000 -32.3623048401830360 45.6726815648224260
 -52.0132891173096112 -30.0298864733248472 44.8388783644192941
 -58.0730897911717179 -33.5285140236115282 47.2914007283360434
 -54.0332226752633957 -31.1960956567539149 46.5551250060154445
 -60.0930233491222623 -34.6947232070440705 49.1891174436733323
 -56.0531562332179902 -32.3623048401819702 48.1467921670178072
 -62.1129569070781926 -35.8609323904710848 50.6115998928722490
 -58.0730897911775514 -33.5285140236055312 49.8032935671253227
