Fe62
1.0
   4.0356620246448012    0.0000000000000000    0.0000000000000002
   2.0178310123223997    3.4949858344305396    0.0000000000000002
   0.0000000000000000    0.0000000000000000   62.6069806531445465
Fe
62
direct
  -0.2499999999999999   -0.2499999999999999    0.0197368421052632 Fe
   0.4166666666666666    0.4166666666666667    0.0065789473684211 Fe
  -0.5833333333333331   -0.5833333333333331    0.0460526315789474 Fe
   0.0833333333333334    0.0833333333333335    0.0328947368421053 Fe
  -0.9166666666666665   -0.9166666666666665    0.0723684210526316 Fe
  -0.2499999999999998   -0.2499999999999998    0.0592105263157895 Fe
  -1.2499999999999998   -1.2499999999999998    0.0986842105263158 Fe
  -0.5833333333333329   -0.5833333333333329    0.0855263157894737 Fe
  -1.5833333333333330   -1.5833333333333330    0.1250000000000000 Fe
  -0.9166666666666663   -0.9166666666666662    0.1118421052631579 Fe
  -1.9166666666666661   -1.9166666666666661    0.1513157894736842 Fe
  -1.2499999999999993   -1.2499999999999993    0.1381578947368421 Fe
  -2.2499999999999996   -2.2499999999999996    0.1776315789473684 Fe
  -1.5833333333333330   -1.5833333333333328    0.1644736842105263 Fe
  -2.5833333333333326   -2.5833333333333326    0.2039473684210526 Fe
  -1.9166666666666659   -1.9166666666666659    0.1907894736842105 Fe
  -2.9166666666666661   -2.9166666666666661    0.2302631578947368 Fe
  -2.2499999999999996   -2.2499999999999991    0.2171052631578947 Fe
  -3.2499999999999991   -3.2499999999999991    0.2565789473684210 Fe
  -2.5833333333333330   -2.5833333333333330    0.2434210526315789 Fe
  -3.5833333333333326   -3.5833333333333326    0.2828947368421052 Fe
  -2.9166666666666665   -2.9166666666666665    0.2697368421052632 Fe
  -3.9166666666666661   -3.9166666666666661    0.3092105263157894 Fe
  -3.2499999999999991   -3.2499999999999991    0.2960526315789473 Fe
  -4.2499999999999991   -4.2499999999999991    0.3355263157894736 Fe
  -3.5833333333333326   -3.5833333333333326    0.3223684210526315 Fe
  -4.5833333333333321   -4.5833333333333321    0.3618421052631579 Fe
  -3.9166666666666661   -3.9166666666666661    0.3486842105263158 Fe
  -4.9166666666666661   -4.9166666666666661    0.3881578947368420 Fe
  -4.2499999999999991   -4.2499999999999991    0.3749999999999999 Fe
  -5.2499999999999991   -5.2499999999999991    0.4144736842105263 Fe
  -4.5833333333333321   -4.5833333333333321    0.4013157894736842 Fe
  -5.5833333333333321   -5.5833333333333321    0.4407894736842105 Fe
  -4.9166666666666652   -4.9166666666666652    0.4276315789473683 Fe
  -5.9166666666666652   -5.9166666666666652    0.4671052631578947 Fe
  -5.2499999999999991   -5.2499999999999982    0.4539473684210525 Fe
  -6.2499999999999982   -6.2499999999999982    0.4934210526315788 Fe
  -5.5833333333333321   -5.5833333333333321    0.4802631578947368 Fe
  -6.5833333333333321   -6.5833333333333321    0.5197368421052631 Fe
  -5.9166666666666652   -5.9166666666666652    0.5065789473684209 Fe
  -6.9166666666666652   -6.9166666666666652    0.5460526315789472 Fe
  -6.2499999999999973   -6.2499999999999973    0.5328947368421051 Fe
  -7.2500000000000000   -7.2500000000000000    0.5723684210526316 Fe
  -6.5833333333333321   -6.5833333333333321    0.5592105263157894 Fe
  -7.5833333333333313   -7.5833333333333313    0.5986842105263157 Fe
  -6.9166666666666643   -6.9166666666666643    0.5855263157894736 Fe
  -7.9166666666666652   -7.9166666666666652    0.6249999999999999 Fe
  -7.2499999999999973   -7.2499999999999973    0.6118421052631577 Fe
  -8.2499999999999982   -8.2499999999999982    0.6513157894736842 Fe
  -7.5833333333333313   -7.5833333333333313    0.6381578947368419 Fe
  -8.5833333333333321   -8.5833333333333321    0.6776315789473684 Fe
  -7.9166666666666643   -7.9166666666666643    0.6644736842105262 Fe
  -8.9166666666666661   -8.9166666666666661    0.7039473684210525 Fe
  -8.2499999999999982   -8.2499999999999982    0.6907894736842104 Fe
  -9.2499999999999982   -9.2499999999999982    0.7302631578947367 Fe
  -8.5833333333333321   -8.5833333333333321    0.7171052631578946 Fe
  -9.5833333333333304   -9.5833333333333304    0.7565789473684209 Fe
  -8.9166666666666625   -8.9166666666666625    0.7434210526315788 Fe
  -9.9166666666666643   -9.9166666666666643    0.7828947368421051 Fe
  -9.2499999999999982   -9.2499999999999982    0.7697368421052631 Fe
 -10.2499999999999982  -10.2499999999999982    0.8092105263157894 Fe
  -9.5833333333333304   -9.5833333333333304    0.7960526315789471 Fe
