Rh38
1.0
   2.7227595958572448    0.0000000000000000    0.0000000000000002
   0.0000000000000006    3.8505635475428028    0.0000000000000002
   0.0000000000000000    0.0000000000000000   62.6234707047166310
Rh
38
direct
   0.7499999999999999    1.0000000000000000    0.0326086956521739 Rh
   0.2500000000000000    0.4999999999999999    0.0108695652173913 Rh
   0.7499999999999997    1.0000000000000000    0.0760869565217391 Rh
   0.2499999999999996    0.4999999999999999    0.0543478260869565 Rh
   0.7499999999999991    1.0000000000000002    0.1195652173913044 Rh
   0.2499999999999992    0.5000000000000000    0.0978260869565217 Rh
   0.7499999999999994    1.0000000000000002    0.1630434782608696 Rh
   0.2499999999999991    0.5000000000000000    0.1413043478260869 Rh
   0.7499999999999992    1.0000000000000002    0.2065217391304348 Rh
   0.2499999999999993    0.5000000000000001    0.1847826086956522 Rh
   0.7499999999999991    1.0000000000000002    0.2500000000000000 Rh
   0.2499999999999983    0.5000000000000001    0.2282608695652174 Rh
   0.7499999999999979    1.0000000000000002    0.2934782608695652 Rh
   0.2499999999999981    0.5000000000000002    0.2717391304347826 Rh
   0.7499999999999988    1.0000000000000004    0.3369565217391305 Rh
   0.2499999999999988    0.5000000000000002    0.3152173913043478 Rh
   0.7499999999999986    1.0000000000000004    0.3804347826086957 Rh
   0.2499999999999987    0.5000000000000003    0.3586956521739131 Rh
   0.7499999999999984    1.0000000000000004    0.4239130434782609 Rh
   0.2499999999999985    0.5000000000000003    0.4021739130434784 Rh
   0.7499999999999964    1.0000000000000004    0.4673913043478262 Rh
   0.2499999999999966    0.5000000000000003    0.4456521739130435 Rh
   0.7499999999999999    1.0000000000000004    0.5108695652173915 Rh
   0.2499999999999982    0.5000000000000003    0.4891304347826087 Rh
   0.7499999999999980    1.0000000000000004    0.5543478260869567 Rh
   0.2499999999999980    0.5000000000000004    0.5326086956521739 Rh
   0.7499999999999960    1.0000000000000007    0.5978260869565217 Rh
   0.2499999999999961    0.5000000000000004    0.5760869565217392 Rh
   0.7499999999999994    1.0000000000000007    0.6413043478260871 Rh
   0.2499999999999995    0.5000000000000006    0.6195652173913044 Rh
   0.7499999999999976    0.0000000000000007    0.6847826086956522 Rh
   0.2499999999999976    0.5000000000000004    0.6630434782608696 Rh
   0.7499999999999973    1.0000000000000007    0.7282608695652176 Rh
   0.2499999999999974    0.5000000000000006    0.7065217391304349 Rh
   0.7499999999999936    1.0000000000000007    0.7717391304347826 Rh
   0.2499999999999937    0.5000000000000006    0.7500000000000000 Rh
   0.7499999999999970    1.0000000000000009    0.8152173913043480 Rh
   0.2499999999999971    0.5000000000000007    0.7934782608695654 Rh
