Fe
 1.0000000000000000
     4.0385935935815880   -0.0000000000000444   -0.0000000000000198
     2.0192967967905444    3.4975246476078681    0.0000000000071747
    -0.0000000000166091    0.0000000001506996   87.1935389708187216
 Fe 
  92
Cartesian
 -1.5144725975866462 -0.8743811619094755  1.1617604567073732
  2.5241209959905384  1.4573019364972968  0.3529782864373088
 -3.5337693943806041 -2.0402227111090019  2.8184805258136407
  0.5048241991986729  0.2914603872949698  1.7763136374603079
 -5.5530661911718227 -3.2060642603087666  4.4106554906503552
 -1.5144725975902213 -0.8743811619047317  3.6742379126523654
 -7.5723629879623342 -4.3719058095075916  6.1268126691410867
 -3.5337693943810065 -2.0402227111041902  5.2929011772791963
 -9.5916597847525420 -5.5377473587073718  7.7754828942152292
 -5.5530661911713972 -3.2060642603036116  6.9301526126025248
 -11.6109565815427729 -6.7035889079068776  9.4132615784515892
 -7.5723629879615677 -4.3719058095032288  8.5975809903117035
 -13.6302533783332755 -7.8694304571056151 11.0659499571654667
 -9.5916597847519238 -5.5377473587024388 10.2430690766469645
 -15.6495501751236947 -9.0352720063038969 12.7136251160880764
 -11.6109565815424460 -6.7035889079008948 11.8876412224568373
 -17.6688469719132968 -10.2011135555024133 14.3601696016609797
 -13.6302533783325810 -7.8694304570991545 13.5371032598712464
 -19.6881437687020053 -11.3669551047017077 16.0083835137324755
 -15.6495501751217549 -9.0352720062980119 15.1846456286008546
 -21.7074405654907530 -12.5327966539019027 17.6560379257655455
 -17.6688469719101562 -10.2011135554978036 16.8319667457957536
 -23.7267373622807369 -13.6986382031026483 19.3034059359406669
 -19.6881437686993124 -11.3669551046983308 18.4797184576198532
 -25.7460341590722130 -14.8644797523035130 20.9510629959953825
 -21.7074405654902662 -12.5327966538991813 20.1273419625428325
 -27.7653309558638419 -16.0303213015041877 22.5987076903403725
 -23.7267373622821047 -13.6986382030999589 21.7749405853495617
 -29.7846277526540497 -17.1961628507043294 24.2462329166310866
 -25.7460341590730799 -14.8644797523003511 23.4223185973904755
 -31.8039245494431135 -18.3620043999039666 25.8936678585790787
 -27.7653309558626411 -16.0303213015002406 25.0700309575604052
 -33.8232213462324509 -19.5278459491037388 27.5413321328837561
 -29.7846277526515770 -17.1961628506999098 26.7176559583620055
 -35.8425181430224455 -20.6936874983040511 29.1890179169768089
 -31.8039245494411880 -18.3620043998998241 28.3650031278892527
 -37.8618149398131720 -21.8595290475050952 30.8364950969573428
 -33.8232213462317617 -19.5278459491005201 30.0126558341844962
 -39.8811117366035930 -23.0253705967062849 32.4840234166873287
 -35.8425181430224953 -20.6936874983018022 31.6603507104655861
 -41.9004085333929268 -24.1912121459068103 34.1316662846217724
 -37.8618149398122341 -21.8595290475027646 33.3079720111550728
 -43.9197053301812588 -25.3570536951063303 35.7793474944303895
 -39.8811117366010635 -23.0253705967027500 34.9554785928776042
 -45.9390021269700810 -26.5228952443051682 37.4268048012571484
 -41.9004085333897223 -24.1912121459018259 36.6030268980557381
 -47.9582989237603527 -27.6887367935044004 39.0743842840994375
 -43.9197053301790419 -25.3570536951007917 38.2506063808980912
 -49.9775957205520029 -28.8545783427049507 40.7219325892770740
 -45.9390021269698252 -26.5228952443005959 39.8980636877247363
 -51.9968925173439729 -30.0204198919067125 42.3694391709984401
 -47.9582989237619159 -27.6887367935017892 41.5457448975323445
 -54.0161893141348983 -31.1862614411084280 44.0170604716865057
 -49.9775957205537154 -28.8545783427037321 43.1933877654655660
 -56.0354861109239124 -32.3521029903089357 45.6647553479656523
 -51.9968925173435750 -30.0204198919049965 44.8409160851938822
 -58.0547829077117612 -33.5179445395083846 47.3124080542587180
 -54.0161893141316369 -31.1862614411048220 46.4883932651722560
 -60.0740797045006829 -34.6837860887078335 48.9597552237842280
 -56.0354861109198978 -32.3521029903042106 48.1360790492632304
 -62.0933765012920560 -35.8496276379083838 50.6073802245840412
 -58.0547829077100701 -33.5179445395042137 49.7837433235661493
 -64.1126732980848573 -37.0154691871097583 52.2550925847531076
 -60.0740797045020543 -34.6837860887051406 51.4311782655128340
 -66.1319700948765785 -38.1813107363107775 53.9024705967940534
 -62.0933765012947276 -35.8496276379062877 53.0787034918029761
 -68.1512668916653723 -39.3471522855107239 55.5500692196011201
 -64.1126732980854968 -37.0154691871068593 54.7263481861482717
 -70.1705636884508550 -40.5129938347097607 57.1976927245254103
 -66.1319700948724574 -38.1813107363063651 56.3740052462040424
 -72.1898604852358119 -41.6788353839086412 58.8454444363512010
 -68.1512668916570163 -39.3471522855052172 58.0213732563803291
 -74.2091572820235683 -42.8446769331076496 60.4927655535471160
 -70.1705636884432096 -40.5129938347041758 59.6690276684149694
 -76.2284540788160569 -44.0105184823071909 62.1403079222778487
 -72.1898604852334103 -41.6788353839035963 61.3172415804877673
 -78.2477508756108193 -45.1763600315068601 63.7897699596934444
 -74.2091572820271494 -42.8446769331029742 62.9637860660615942
 -80.2670476724048143 -46.3422015807063090 65.4343421055021821
 -76.2284540788218834 -44.0105184823024516 64.6114612249847653
 -82.2863444691970329 -47.5080431299050687 67.0798301918374307
 -78.2477508756154947 -45.1763600315017015 66.2641496036979447
 -84.3056412659879300 -48.6738846791031747 68.7472585695471423
 -80.2670476724060649 -46.3422015807006247 67.9019282879367978
 -86.3249380627739100 -49.8397262283021689 70.3845100048576313
 -82.2863444691953845 -47.5080431298991357 69.5505985130067330
 -88.3442348595582274 -51.0055677775024137 72.0031732695010476
 -84.3056412659857699 -48.6738846790965951 71.2667556914989859
 -90.3635316564711815 -52.1714093266792744 73.9010975446852711
 -86.3249380627565017 -49.8397262283000515 72.8589306563779644
 -92.3828284532016113 -53.3372508758930479 75.3244328956777736
 -88.3442348593838034 -51.0055677775313541 74.5156507254378226
