Fe92
1.0
   4.0356620246448012    0.0000000000000000    0.0000000000000002
   2.0178310123223997    3.4949858344305396    0.0000000000000002
   0.0000000000000000    0.0000000000000000   87.3202624899121389
Fe
92
direct
  -0.2499999999999999   -0.2499999999999999    0.0141509433962264 Fe
   0.4166666666666666    0.4166666666666668    0.0047169811320755 Fe
  -0.5833333333333331   -0.5833333333333331    0.0330188679245283 Fe
   0.0833333333333334    0.0833333333333335    0.0235849056603774 Fe
  -0.9166666666666665   -0.9166666666666665    0.0518867924528302 Fe
  -0.2499999999999998   -0.2499999999999997    0.0424528301886792 Fe
  -1.2499999999999998   -1.2499999999999998    0.0707547169811321 Fe
  -0.5833333333333333   -0.5833333333333330    0.0613207547169811 Fe
  -1.5833333333333328   -1.5833333333333328    0.0896226415094339 Fe
  -0.9166666666666663   -0.9166666666666662    0.0801886792452830 Fe
  -1.9166666666666661   -1.9166666666666661    0.1084905660377358 Fe
  -1.2499999999999996   -1.2499999999999996    0.0990566037735849 Fe
  -2.2499999999999991   -2.2499999999999991    0.1273584905660377 Fe
  -1.5833333333333330   -1.5833333333333328    0.1179245283018868 Fe
  -2.5833333333333326   -2.5833333333333326    0.1462264150943396 Fe
  -1.9166666666666659   -1.9166666666666659    0.1367924528301886 Fe
  -2.9166666666666661   -2.9166666666666661    0.1650943396226415 Fe
  -2.2499999999999996   -2.2499999999999991    0.1556603773584905 Fe
  -3.2499999999999991   -3.2499999999999991    0.1839622641509433 Fe
  -2.5833333333333321   -2.5833333333333321    0.1745283018867924 Fe
  -3.5833333333333326   -3.5833333333333326    0.2028301886792452 Fe
  -2.9166666666666665   -2.9166666666666665    0.1933962264150943 Fe
  -3.9166666666666661   -3.9166666666666661    0.2216981132075471 Fe
  -3.2499999999999991   -3.2499999999999991    0.2122641509433962 Fe
  -4.2499999999999991   -4.2499999999999991    0.2405660377358490 Fe
  -3.5833333333333317   -3.5833333333333317    0.2311320754716980 Fe
  -4.5833333333333321   -4.5833333333333321    0.2594339622641509 Fe
  -3.9166666666666656   -3.9166666666666652    0.2499999999999999 Fe
  -4.9166666666666652   -4.9166666666666652    0.2783018867924527 Fe
  -4.2499999999999991   -4.2499999999999991    0.2688679245283018 Fe
  -5.2499999999999982   -5.2499999999999982    0.2971698113207547 Fe
  -4.5833333333333313   -4.5833333333333313    0.2877358490566037 Fe
  -5.5833333333333313   -5.5833333333333313    0.3160377358490565 Fe
  -4.9166666666666652   -4.9166666666666652    0.3066037735849056 Fe
  -5.9166666666666652   -5.9166666666666652    0.3349056603773584 Fe
  -5.2499999999999982   -5.2499999999999973    0.3254716981132074 Fe
  -6.2499999999999982   -6.2499999999999982    0.3537735849056603 Fe
  -5.5833333333333313   -5.5833333333333313    0.3443396226415093 Fe
  -6.5833333333333313   -6.5833333333333313    0.3726415094339621 Fe
  -5.9166666666666643   -5.9166666666666643    0.3632075471698112 Fe
  -6.9166666666666652   -6.9166666666666652    0.3915094339622641 Fe
  -6.2499999999999982   -6.2499999999999982    0.3820754716981131 Fe
  -7.2499999999999991   -7.2499999999999991    0.4103773584905659 Fe
  -6.5833333333333321   -6.5833333333333321    0.4009433962264150 Fe
  -7.5833333333333313   -7.5833333333333313    0.4292452830188678 Fe
  -6.9166666666666643   -6.9166666666666643    0.4198113207547169 Fe
  -7.9166666666666652   -7.9166666666666652    0.4481132075471697 Fe
  -7.2499999999999973   -7.2499999999999973    0.4386792452830187 Fe
  -8.2499999999999982   -8.2499999999999982    0.4669811320754716 Fe
  -7.5833333333333313   -7.5833333333333313    0.4575471698113206 Fe
  -8.5833333333333304   -8.5833333333333304    0.4858490566037734 Fe
  -7.9166666666666643   -7.9166666666666643    0.4764150943396225 Fe
  -8.9166666666666661   -8.9166666666666661    0.5047169811320754 Fe
  -8.2499999999999982   -8.2499999999999982    0.4952830188679244 Fe
  -9.2500000000000000   -9.2500000000000000    0.5235849056603773 Fe
  -8.5833333333333321   -8.5833333333333321    0.5141509433962264 Fe
  -9.5833333333333304   -9.5833333333333304    0.5424528301886791 Fe
  -8.9166666666666643   -8.9166666666666643    0.5330188679245282 Fe
  -9.9166666666666643   -9.9166666666666643    0.5613207547169810 Fe
  -9.2499999999999982   -9.2499999999999982    0.5518867924528301 Fe
 -10.2499999999999982  -10.2499999999999982    0.5801886792452829 Fe
  -9.5833333333333321   -9.5833333333333321    0.5707547169811320 Fe
 -10.5833333333333321  -10.5833333333333321    0.5990566037735848 Fe
  -9.9166666666666643   -9.9166666666666643    0.5896226415094338 Fe
 -10.9166666666666661  -10.9166666666666661    0.6179245283018867 Fe
 -10.2499999999999982  -10.2499999999999982    0.6084905660377357 Fe
 -11.2499999999999964  -11.2499999999999964    0.6367924528301885 Fe
 -10.5833333333333304  -10.5833333333333304    0.6273584905660375 Fe
 -11.5833333333333304  -11.5833333333333304    0.6556603773584904 Fe
 -10.9166666666666643  -10.9166666666666643    0.6462264150943395 Fe
 -11.9166666666666643  -11.9166666666666643    0.6745283018867922 Fe
 -11.2499999999999964  -11.2499999999999964    0.6650943396226413 Fe
 -12.2499999999999982  -12.2499999999999982    0.6933962264150942 Fe
 -11.5833333333333304  -11.5833333333333304    0.6839622641509432 Fe
 -12.5833333333333304  -12.5833333333333304    0.7122641509433960 Fe
 -11.9166666666666643  -11.9166666666666643    0.7028301886792451 Fe
 -12.9166666666666625  -12.9166666666666625    0.7311320754716979 Fe
 -12.2499999999999964  -12.2499999999999964    0.7216981132075470 Fe
 -13.2499999999999964  -13.2499999999999964    0.7499999999999998 Fe
 -12.5833333333333304  -12.5833333333333304    0.7405660377358488 Fe
 -13.5833333333333321  -13.5833333333333321    0.7688679245283018 Fe
 -12.9166666666666661  -12.9166666666666661    0.7594339622641508 Fe
 -13.9166666666666661  -13.9166666666666661    0.7877358490566037 Fe
 -13.2499999999999982  -13.2499999999999982    0.7783018867924527 Fe
 -14.2499999999999982  -14.2499999999999982    0.8066037735849055 Fe
 -13.5833333333333304  -13.5833333333333304    0.7971698113207546 Fe
 -14.5833333333333304  -14.5833333333333304    0.8254716981132074 Fe
 -13.9166666666666643  -13.9166666666666643    0.8160377358490565 Fe
 -14.9166666666666643  -14.9166666666666643    0.8443396226415093 Fe
 -14.2499999999999982  -14.2499999999999982    0.8349056603773584 Fe
 -15.2499999999999964  -15.2499999999999964    0.8632075471698111 Fe
 -14.5833333333333304  -14.5833333333333304    0.8537735849056601 Fe
