Fe
 1.0000000000000000
     4.0589013400491982   -0.0000000000000000    0.0000000000000002
     2.0294506700245982    3.5151116719373339    0.0000000000000555
    -0.0000000000000206    0.0000000000002336   17.9161394600209789
 Fe 
   8
Cartesian
 -1.5220880025184502 -0.8787779179843179  1.1923288432738994
  2.5368133375307549  1.4646298633072501  0.3931901301406525
 -3.5515386725430362 -2.0504818086300758  2.8314688408638728
  0.5073626675061524  0.2929259726614509  1.7755904895772805
 -5.5809893425676336 -3.2221856992758200  4.7393693140666073
 -1.5220880025184385 -0.8787779179842991  3.6834909627799992
 -7.6104400125922274 -4.3938895899216268  6.1217696735032323
 -3.5515386725430282 -2.0504818086300554  5.3226309603699802
