Cu60
1.0
   2.5636948460759439    0.0000000000000000    0.0000000000000002
   0.0000000000000006    3.6256120211066047    0.0000000000000002
   0.0000000000000000    0.0000000000000000   87.1656247665821127
Cu
60
direct
   0.7500000000000000    0.0000000000000000    0.0220588235294118 Cu
   0.2500000000000000    0.5000000000000001    0.0073529411764706 Cu
   0.7500000000000001    0.0000000000000001    0.0514705882352941 Cu
   0.2499999999999999    0.5000000000000000    0.0367647058823529 Cu
   0.7500000000000002    1.0000000000000000    0.0808823529411765 Cu
   0.2500000000000001    0.5000000000000002    0.0661764705882353 Cu
   0.7500000000000007    1.0000000000000000    0.1102941176470588 Cu
   0.2500000000000007    0.5000000000000001    0.0955882352941177 Cu
   0.7500000000000003    0.0000000000000002    0.1397058823529412 Cu
   0.2500000000000003    0.5000000000000003    0.1250000000000000 Cu
   0.7500000000000003    0.0000000000000002    0.1691176470588235 Cu
   0.2500000000000003    0.5000000000000003    0.1544117647058824 Cu
   0.7500000000000013    1.0000000000000002    0.1985294117647059 Cu
   0.2500000000000004    0.5000000000000003    0.1838235294117647 Cu
   0.7499999999999994    0.0000000000000003    0.2279411764705882 Cu
   0.2500000000000004    0.5000000000000004    0.2132352941176471 Cu
   0.7499999999999988    0.0000000000000004    0.2573529411764706 Cu
   0.2500000000000005    0.5000000000000003    0.2426470588235294 Cu
   0.7500000000000006    1.0000000000000002    0.2867647058823530 Cu
   0.2500000000000006    0.5000000000000006    0.2720588235294118 Cu
   0.7500000000000007    1.0000000000000004    0.3161764705882353 Cu
   0.2500000000000006    0.5000000000000003    0.3014705882352941 Cu
   0.7500000000000007    0.0000000000000005    0.3455882352941177 Cu
   0.2500000000000007    0.5000000000000006    0.3308823529411765 Cu
   0.7500000000000008    0.0000000000000006    0.3750000000000000 Cu
   0.2500000000000008    0.5000000000000004    0.3602941176470588 Cu
   0.7499999999999972    0.0000000000000006    0.4044117647058824 Cu
   0.2499999999999973    0.5000000000000007    0.3897058823529412 Cu
   0.7499999999999972    0.0000000000000006    0.4338235294117647 Cu
   0.2499999999999973    0.5000000000000008    0.4191176470588235 Cu
   0.7499999999999973    0.0000000000000007    0.4632352941176470 Cu
   0.2499999999999974    0.5000000000000008    0.4485294117647058 Cu
   0.7499999999999973    0.0000000000000007    0.4926470588235294 Cu
   0.2499999999999974    0.5000000000000008    0.4779411764705883 Cu
   0.7500000000000011    1.0000000000000007    0.5220588235294118 Cu
   0.2500000000000011    0.5000000000000007    0.5073529411764706 Cu
   0.7500000000000011    0.0000000000000008    0.5514705882352942 Cu
   0.2499999999999976    0.5000000000000009    0.5367647058823529 Cu
   0.7500000000000012    0.0000000000000009    0.5808823529411766 Cu
   0.2499999999999976    0.5000000000000008    0.5661764705882353 Cu
   0.7500000000000012    0.0000000000000009    0.6102941176470589 Cu
   0.2499999999999977    0.5000000000000010    0.5955882352941176 Cu
   0.7500000000000013    1.0000000000000009    0.6397058823529412 Cu
   0.2499999999999978    0.5000000000000009    0.6250000000000001 Cu
   0.7500000000000014    1.0000000000000009    0.6691176470588236 Cu
   0.2500000000000014    0.5000000000000011    0.6544117647058826 Cu
   0.7500000000000014    0.0000000000000010    0.6985294117647060 Cu
   0.2500000000000014    0.5000000000000011    0.6838235294117648 Cu
   0.7500000000000016    0.0000000000000011    0.7279411764705883 Cu
   0.2500000000000015    0.5000000000000011    0.7132352941176472 Cu
   0.7500000000000016    0.0000000000000011    0.7573529411764707 Cu
   0.2500000000000016    0.5000000000000012    0.7426470588235294 Cu
   0.7499999999999980    0.0000000000000012    0.7867647058823530 Cu
   0.2499999999999981    0.5000000000000012    0.7720588235294117 Cu
   0.7499999999999980    0.0000000000000012    0.8161764705882354 Cu
   0.2499999999999981    0.5000000000000013    0.8014705882352940 Cu
   0.7499999999999981    0.0000000000000012    0.8455882352941176 Cu
   0.2499999999999982    0.5000000000000012    0.8308823529411764 Cu
   0.7500000000000018    1.0000000000000011    0.8750000000000001 Cu
   0.2499999999999983    0.5000000000000013    0.8602941176470588 Cu
