Cu20
1.0
   2.5636948460759439    0.0000000000000000    0.0000000000000002
   0.0000000000000006    3.6256120211066047    0.0000000000000002
   0.0000000000000000    0.0000000000000000   35.8917278450632224
Cu
20
direct
   0.7500000000000000    0.9999999999999999    0.0535714285714286 Cu
   0.2500000000000000    0.5000000000000001    0.0178571428571428 Cu
   0.7500000000000001    1.0000000000000000    0.1250000000000000 Cu
   0.2499999999999999    0.5000000000000000    0.0892857142857142 Cu
   0.7500000000000002    1.0000000000000000    0.1964285714285714 Cu
   0.2500000000000001    0.5000000000000002    0.1607142857142857 Cu
   0.7500000000000002    1.0000000000000000    0.2678571428571427 Cu
   0.2499999999999993    0.5000000000000001    0.2321428571428571 Cu
   0.7499999999999993    0.0000000000000002    0.3392857142857141 Cu
   0.2499999999999993    0.5000000000000003    0.3035714285714285 Cu
   0.7500000000000003    1.0000000000000002    0.4107142857142856 Cu
   0.2500000000000003    0.5000000000000003    0.3749999999999999 Cu
   0.7499999999999987    1.0000000000000002    0.4821428571428570 Cu
   0.2500000000000004    0.5000000000000003    0.4464285714285713 Cu
   0.7499999999999994    0.0000000000000003    0.5535714285714285 Cu
   0.2500000000000013    0.5000000000000004    0.5178571428571428 Cu
   0.7500000000000006    1.0000000000000002    0.6249999999999999 Cu
   0.2500000000000005    0.5000000000000003    0.5892857142857142 Cu
   0.7500000000000023    1.0000000000000002    0.6964285714285714 Cu
   0.2500000000000023    0.5000000000000006    0.6607142857142857 Cu
