Zr
 1.0000000000000000
     5.0530139935795928   -0.0000000000000000    0.0000000000000003
     0.0000000000000002    5.0531034608342100    0.0000000000018496
     0.0000000000000513    0.0000000000124549   71.7733150211628441
 Zr 
  64
Cartesian
  3.7897604951838977  0.0001416772660019  1.1686214677984634
  1.2632534983940997  2.5264100531533873  1.1686214677993698
  3.7897604951839012 -2.5265728354549246  2.9175537142015489
  1.2632534983940955  0.0000211050390378  2.9175537142024242
  3.7897604951839066 -5.0531489482553873  4.7619148997273211
  1.2632534983941033 -2.5265062429957772  4.7619148997282155
  3.7897604951839057 -7.5795362180945407  6.5871532771063102
  1.2632534983941024 -5.0532224339916949  6.5871532771071948
  3.7897604951839021 -10.1061100870111407  8.4108142988856134
  1.2632534983941048 -7.5797520259102891  8.4108142988864678
  3.7897604951838963 -12.6327821269290776 10.2405384857678126
  1.2632534983940999 -10.1061834468273215 10.2405384857687043
  3.7897604951838937 -15.1594185757682283 12.0691649017047364
  1.2632534983940942 -12.6326504588231820 12.0691649017055678
  3.7897604951838879 -17.6858239814134031 13.8981285080601396
  1.2632534983940946 -15.1593485140128603 13.8981285080610313
  3.7897604951838888 -20.2121544718263308 15.7272655587146133
  1.2632534983940940 -17.6861214844348780 15.7272655587154500
  3.7897604951838937 -22.7386520965001573 17.5563196287890300
  1.2632534983940997 -20.2127273205957678 17.5563196287898862
  3.7897604951838963 -25.2653634639076259 19.3854069757629937
  1.2632534983941066 -22.7391194140229800 19.3854069757638818
  3.7897604951839008 -27.7922274810745300 21.2145026883845134
  1.2632534983941062 -25.2653588576905861 21.2145026883853873
  3.7897604951839003 -30.3189127339117199 23.0434725005464003
  1.2632534983941062 -27.7917770656878957 23.0434725005472743
  3.7897604951839012 -32.8451057741784851 24.8726365336364168
  1.2632534983941031 -30.3186874862557758 24.8726365336373014
  3.7897604951838999 -35.3713669033734917 26.7017839834866955
  1.2632534983941079 -32.8455298178957236 26.7017839834875481
  3.7897604951839039 -37.8980229665421646 28.5309711349972801
  1.2632534983941106 -35.3719772155620262 28.5309711349981576
  3.7897604951839052 -40.4245746969597590 30.3599540105324408
  1.2632534983941106 -37.8985289459795567 30.3599540105332757
  3.7897604951839030 -42.9510220946259906 32.1891411620430503
  1.2632534983941117 -40.4251850091481728 32.1891411620439172
  3.7897604951838990 -45.4778644262659384 34.0182886118936878
  1.2632534983941044 -42.9514461383430799 34.0182886118944836
  3.7897604951838924 -48.0047748468338753 35.8474526449839743
  1.2632534983940997 -45.4776391786097633 35.8474526449849122
  3.7897604951838879 -50.5311930548313057 37.6764224571461597
  1.2632534983940926 -48.0043244314472233 37.6764224571469413
  3.7897604951838879 -53.0574324984991179 39.5055181697678108
  1.2632534983940942 -50.5311884486143796 39.5055181697687487
  3.7897604951838892 -55.5838245919264153 41.3346055167425348
  1.2632534983940955 -53.0578998160222355 41.3346055167433519
  3.7897604951839003 -58.1104304280877670 43.1636595868169692
  1.2632534983941022 -55.5843974406963710 43.1636595868178290
  3.7897604951839048 -60.6372033985099392 44.9927966374722814
  1.2632534983941135 -58.1107279311095866 44.9927966374730985
  3.7897604951839159 -63.1639014537004826 46.8217602438260698
  1.2632534983941162 -60.6371333367547294 46.8217602438268869
  3.7897604951839199 -65.6903684656966362 48.6503866597665180
  1.2632534983941210 -63.1637697855933453 48.6503866597675199
  3.7897604951839190 -68.2167998866126197 50.4801108466438251
  1.2632534983941188 -65.6904418255127496 50.4801108466445569
  3.7897604951839163 -70.7433294785311659 52.3037718684324417
  1.2632534983941142 -68.2170156944284258 52.3037718684335999
  3.7897604951839079 -73.2700456695264677 54.1290102457846984
  1.2632534983941033 -70.7434029642683981 54.1290102457855085
  3.7897604951839008 -75.7965730175618830 55.9733714313798956
  1.2632534983940946 -73.2699790770673047 55.9733714313811532
  3.7897604951838928 -78.3229619656759297 57.7223036777000544
  1.2632534983940931 -75.7966935897886316 57.7223036777009426
