Zr64
1.0
   5.2616020868079234    0.0000000000000000    0.0000000000000003
   0.0000000000000009    5.5621135865529112    0.0000000000000003
   0.0000000000000000    0.0000000000000000   62.6201116409620937
Zr
64
direct
   0.7500000000000001    0.0833333333333332    0.0128205128205128 Zr
   0.2499999999999999    0.4166666666666664    0.0128205128205128 Zr
   0.7500000000000001   -0.4166666666666669    0.0384615384615385 Zr
   0.2499999999999999   -0.0833333333333338    0.0384615384615385 Zr
   0.7500000000000002   -0.9166666666666672    0.0641025641025641 Zr
   0.2500000000000000   -0.5833333333333338    0.0641025641025641 Zr
   0.7500000000000002   -1.4166666666666676    0.0897435897435898 Zr
   0.2500000000000001   -1.0833333333333339    0.0897435897435897 Zr
   0.7500000000000003   -1.9166666666666676    0.1153846153846154 Zr
   0.2500000000000001   -1.5833333333333344    0.1153846153846154 Zr
   0.7500000000000003   -2.4166666666666674    0.1410256410256410 Zr
   0.2500000000000002   -2.0833333333333344    0.1410256410256410 Zr
   0.7500000000000004   -2.9166666666666683    0.1666666666666667 Zr
   0.2500000000000002   -2.5833333333333353    0.1666666666666667 Zr
   0.7500000000000004   -3.4166666666666683    0.1923076923076923 Zr
   0.2500000000000003   -3.0833333333333348    0.1923076923076923 Zr
   0.7500000000000006   -3.9166666666666679    0.2179487179487180 Zr
   0.2500000000000003   -3.5833333333333348    0.2179487179487180 Zr
   0.7500000000000006   -4.4166666666666687    0.2435897435897436 Zr
   0.2500000000000003   -4.0833333333333357    0.2435897435897436 Zr
   0.7500000000000007   -4.9166666666666679    0.2692307692307692 Zr
   0.2500000000000004   -4.5833333333333348    0.2692307692307692 Zr
   0.7500000000000007   -5.4166666666666687    0.2948717948717949 Zr
   0.2500000000000004   -5.0833333333333348    0.2948717948717949 Zr
   0.7500000000000008   -5.9166666666666696    0.3205128205128206 Zr
   0.2500000000000005   -5.5833333333333366    0.3205128205128206 Zr
   0.7500000000000008   -6.4166666666666687    0.3461538461538462 Zr
   0.2500000000000006   -6.0833333333333357    0.3461538461538462 Zr
   0.7500000000000009   -6.9166666666666696    0.3717948717948719 Zr
   0.2500000000000006   -6.5833333333333357    0.3717948717948719 Zr
   0.7500000000000009   -7.4166666666666696    0.3974358974358975 Zr
   0.2500000000000007   -7.0833333333333366    0.3974358974358975 Zr
   0.7500000000000009   -7.9166666666666687    0.4230769230769231 Zr
   0.2500000000000007   -7.5833333333333357    0.4230769230769231 Zr
   0.7500000000000010   -8.4166666666666696    0.4487179487179488 Zr
   0.2500000000000008   -8.0833333333333375    0.4487179487179488 Zr
   0.7500000000000010   -8.9166666666666714    0.4743589743589745 Zr
   0.2500000000000008   -8.5833333333333375    0.4743589743589745 Zr
   0.7500000000000011   -9.4166666666666696    0.5000000000000000 Zr
   0.2500000000000009   -9.0833333333333375    0.5000000000000000 Zr
   0.7500000000000011   -9.9166666666666696    0.5256410256410257 Zr
   0.2500000000000009   -9.5833333333333357    0.5256410256410255 Zr
   0.7500000000000012  -10.4166666666666679    0.5512820512820512 Zr
   0.2500000000000010  -10.0833333333333357    0.5512820512820512 Zr
   0.7500000000000012  -10.9166666666666696    0.5769230769230770 Zr
   0.2500000000000011  -10.5833333333333357    0.5769230769230769 Zr
   0.7500000000000013  -11.4166666666666679    0.6025641025641025 Zr
   0.2500000000000011  -11.0833333333333357    0.6025641025641025 Zr
   0.7500000000000013  -11.9166666666666714    0.6282051282051283 Zr
   0.2500000000000011  -11.5833333333333393    0.6282051282051283 Zr
   0.7500000000000014  -12.4166666666666732    0.6538461538461540 Zr
   0.2500000000000012  -12.0833333333333393    0.6538461538461540 Zr
   0.7500000000000014  -12.9166666666666714    0.6794871794871795 Zr
   0.2500000000000012  -12.5833333333333375    0.6794871794871795 Zr
   0.7500000000000016  -13.4166666666666696    0.7051282051282051 Zr
   0.2500000000000013  -13.0833333333333375    0.7051282051282052 Zr
   0.7500000000000016  -13.9166666666666714    0.7307692307692308 Zr
   0.2500000000000013  -13.5833333333333375    0.7307692307692308 Zr
   0.7500000000000017  -14.4166666666666696    0.7564102564102564 Zr
   0.2500000000000014  -14.0833333333333375    0.7564102564102565 Zr
   0.7500000000000017  -14.9166666666666732    0.7820512820512822 Zr
   0.2500000000000014  -14.5833333333333375    0.7820512820512820 Zr
   0.7500000000000017  -15.4166666666666714    0.8076923076923077 Zr
   0.2500000000000015  -15.0833333333333357    0.8076923076923076 Zr
