Cu
 1.0000000000000000
     2.5342882895047087    0.0000000000000000    0.0000000000000002
    -0.0000000000000001    3.5794894220085327   -0.0000000000002143
    -0.0000000000000066   -0.0000000000008935   21.0148781215552525
 Cu 
   8
Cartesian
  1.9007162171285463  3.5794894220083995  1.9923568526578244
  0.6335720723761897  1.7897447110040510  0.7881053937436823
  1.9007162171285554  3.5794894220084208  4.6077586592626272
  0.6335720723761943  1.7897447110041489  3.3148331428245932
  1.9007162171285565  3.5794894220083178  7.1926059179527231
  0.6335720723761977  1.7897447110040299  5.8996804015146429
  1.9007162171285548  3.5794894220083870  9.7193336670336414
  0.6335720723761969  1.7897447110040443  8.5150822081195265
