Fe38
1.0
   2.4713281836767584    0.0000000000000000    0.0000000000000002
  -0.8237760612255860    2.3299905562870262    0.0000000000000002
   0.0000000000000000    0.0000000000000000   86.7667335298632594
Fe
38
direct
   0.7500000000000000    0.2500000000000001    0.0116279069767442 Fe
   0.2499999999999999    0.7500000000000000    0.0348837209302326 Fe
   0.7500000000000001    0.2499999999999998    0.0581395348837209 Fe
   0.2499999999999995    0.7500000000000001    0.0813953488372093 Fe
   0.7499999999999997    0.2500000000000001    0.1046511627906976 Fe
   0.2499999999999996    0.7500000000000000    0.1279069767441860 Fe
   0.7500000000000001    0.2499999999999995    0.1511627906976744 Fe
   0.2499999999999990    0.7499999999999999    0.1744186046511627 Fe
   0.7499999999999999    0.2499999999999998    0.1976744186046511 Fe
   0.2499999999999998    0.7499999999999998    0.2209302325581395 Fe
   0.7499999999999998    0.2499999999999996    0.2441860465116278 Fe
   0.2499999999999978    0.7500000000000004    0.2674418604651162 Fe
   0.7499999999999986    0.2499999999999995    0.2906976744186046 Fe
   0.2499999999999986    0.7500000000000002    0.3139534883720930 Fe
   0.7499999999999976    0.2500000000000011    0.3372093023255814 Fe
   0.2499999999999984    0.7500000000000002    0.3604651162790696 Fe
   0.7499999999999993    0.2500000000000009    0.3837209302325581 Fe
   0.2500000000000002    0.7500000000000001    0.4069767441860463 Fe
   0.7499999999999973    0.2500000000000008    0.4302325581395348 Fe
   0.2499999999999981    0.7499999999999998    0.4534883720930232 Fe
   0.7499999999999972    0.2500000000000007    0.4767441860465115 Fe
   0.2499999999999980   -0.2500000000000002    0.4999999999999998 Fe
  -0.2500000000000013    0.2500000000000006    0.5232558139534883 Fe
   0.2499999999999996   -0.2500000000000022    0.5465116279069766 Fe
  -0.2500000000000032    0.2500000000000003    0.5697674418604650 Fe
   0.2499999999999959   -0.2499999999999988    0.5930232558139534 Fe
  -0.2500000000000014    0.2499999999999986    0.6162790697674416 Fe
   0.2499999999999974   -0.2500000000000007    0.6395348837209301 Fe
  -0.2500000000000034    0.2500000000000002    0.6627906976744184 Fe
   0.2499999999999957   -0.2499999999999991    0.6860465116279068 Fe
  -0.2500000000000053    0.2499999999999999    0.7093023255813952 Fe
   0.2499999999999972   -0.2500000000000010    0.7325581395348836 Fe
  -0.2500000000000019    0.2499999999999998    0.7558139534883718 Fe
   0.2500000000000007   -0.2499999999999994    0.7790697674418603 Fe
  -0.2500000000000021    0.2500000000000014    0.8023255813953486 Fe
   0.2499999999999986   -0.2500000000000013    0.8255813953488370 Fe
  -0.2500000000000040    0.2499999999999996    0.8488372093023253 Fe
   0.2500000000000004   -0.2499999999999996    0.8720930232558136 Fe
