Rh
 1.0000000000000000
     2.7087533045683139    0.0000000000000004    0.0000000000000002
     1.3543766522840530    2.3458491743410650   -0.0000000000000111
     0.0000000000004482   -0.0000000000004221   62.8928659659131881
 Rh 
  23
Cartesian
  2.7087533045681931  1.5638994495606020  1.3344790863154905
  4.0631299568523787  2.3458491743410099  3.4794277466313237
  1.3543766522841829  0.7819497247801804  5.7131674678051061
  2.7087533045683587  1.5638994495605298  7.9402277261124006
  4.0631299568525083  2.3458491743409411 10.1754310773133767
  1.3543766522843266  0.7819497247802001 12.4120955294957920
  2.7087533045684524  1.5638994495605596 14.6485825219000123
  4.0631299568525581  2.3458491743409393 16.8851586085058010
  1.3543766522843350  0.7819497247801666 19.1215739265769358
  2.7087533045684213  1.5638994495605287 21.3580400881210828
  4.0631299568525545  2.3458491743409025 23.5945923144174436
  1.3543766522843159  0.7819497247801397 25.8309985217139513
  2.7087533045684653  1.5638994495604832 28.0674047290104305
  4.0631299568525892  2.3458491743408665 30.3039569553067345
  1.3543766522843765  0.7819497247800885 32.5404231168508389
  2.7087533045684782  1.5638994495604375 34.7768384349218707
  4.0631299568526238  2.3458491743408052 37.0134145215276220
  1.3543766522843865  0.7819497247800421 39.2499015139317962
  2.7087533045685248  1.5638994495604122 41.4865659661142203
  4.0631299568527099  2.3458491743408239 43.7217693173152426
  1.3543766522845104  0.7819497247800479 45.9488295756226677
  2.7087533045687024  1.5638994495603356 48.1825692967962596
  4.0631299568528298  2.3458491743407355 50.3275179571123346
