Rh23
1.0
   2.7227595958572453    0.0000000000000000    0.0000000000000002
   1.3613797979286217    2.3579789784102254    0.0000000000000002
   0.0000000000000000    0.0000000000000000   62.2474692197567236
Rh
23
direct
   0.6666666666666667    0.6666666666666665    0.0178571428571429 Rh
   1.0000000000000004    0.9999999999999999    0.0535714285714286 Rh
   0.3333333333333343    0.3333333333333332    0.0892857142857143 Rh
   0.6666666666666676    0.6666666666666663    0.1250000000000000 Rh
   1.0000000000000016    0.9999999999999994    0.1607142857142858 Rh
   0.3333333333333343    0.3333333333333324    0.1964285714285715 Rh
   0.6666666666666690    0.6666666666666663    0.2321428571428573 Rh
   1.0000000000000027    0.9999999999999993    0.2678571428571429 Rh
   0.3333333333333368    0.3333333333333324    0.3035714285714287 Rh
   0.6666666666666680    0.6666666666666645    0.3392857142857145 Rh
   1.0000000000000029    0.9999999999999983    0.3750000000000002 Rh
   0.3333333333333368    0.3333333333333323    0.4107142857142858 Rh
   0.6666666666666706    0.6666666666666653    0.4464285714285716 Rh
   1.0000000000000036    0.9999999999999982    0.4821428571428573 Rh
   0.3333333333333367    0.3333333333333296    0.5178571428571431 Rh
   0.6666666666666697    0.6666666666666643    0.5535714285714287 Rh
   1.0000000000000044    0.9999999999999973    0.5892857142857146 Rh
   0.3333333333333392    0.3333333333333321    0.6250000000000001 Rh
   0.6666666666666704    0.6666666666666616    0.6607142857142860 Rh
   1.0000000000000033    0.9999999999999946    0.6964285714285717 Rh
   0.3333333333333366    0.3333333333333277    0.7321428571428575 Rh
   0.6666666666666713    0.6666666666666624    0.7678571428571431 Rh
   1.0000000000000042    0.9999999999999953    0.8035714285714289 Rh
