Cu
 1.0000000000000000
     2.5570197152760383    0.0000000000000000    0.0000000000000002
    -0.0000000000000003    3.6200235293399254    0.0000000000003778
    -0.0000000000000132    0.0000000000036039   61.7845320034167429
 Cu 
  40
Cartesian
  1.9177647864572382  3.6200235293414651  1.9612249053092194
  0.6392549288192265  1.8100117646718099  0.7831792313872310
  1.9177647864572462  3.6200235293404961  4.5527948442101094
  0.6392549288192203  1.8100117646709182  3.2782947561225901
  1.9177647864572309  3.6200235293401746  7.1216353206455336
  0.6392549288192232  1.8100117646702123  5.8357853741818770
  1.9177647864572338  3.6200235293403935  9.6901495355662615
  0.6392549288192126  1.8100117646702081  8.4057118822193857
  1.9177647864572385  3.6200235293407301 12.2586723313753421
  0.6392549288192132  1.8100117646705272 10.9745972659747277
  1.9177647864572487  3.6200235293410308 14.8274139653233110
  0.6392549288192284  1.8100117646708873 13.5430946749890744
  1.9177647864572289  3.6200235293412382 17.3958809817011648
  0.6392549288192203  1.8100117646711604 16.1116350695991137
  1.9177647864572254  3.6200235293413923 19.9644804415698118
  0.6392549288192065  1.8100117646713374 18.6801400491955221
  1.9177647864572283  3.6200235293415539 22.5329089556291571
  0.6392549288192085  1.8100117646714942 21.2486620872963385
  1.9177647864572154  3.6200235293417058 25.1014439735573163
  0.6392549288192065  1.8100117646716705 23.8172095971019786
  1.9177647864572236  3.6200235293418324 27.6699004057349924
  0.6392549288191963  1.8100117646718263 26.3856660292795517
  1.9177647864572152  3.6200235293419851 30.2384479155407604
  0.6392549288191992  1.8100117646719738 28.9542010472078850
  1.9177647864572336  3.6200235293421663 32.8069699536415982
  0.6392549288192096  1.8100117646721310 31.5226295612672907
  1.9177647864572247  3.6200235293423737 35.3754749332377614
  0.6392549288192106  1.8100117646722897 34.0912290211358595
  1.9177647864572274  3.6200235293426437 37.9440153278478149
  0.6392549288192029  1.8100117646724931 36.6596960375135268
  1.9177647864572418  3.6200235293429861 40.5125127368623836
  0.6392549288192163  1.8100117646727834 39.2284376714615348
  1.9177647864572489  3.6200235293432583 43.0813981206179335
  0.6392549288192267  1.8100117646731260 41.7969604672709636
  1.9177647864572511  3.6200235293431922 45.6513246286556083
  0.6392549288192280  1.8100117646733191 44.3654746821917527
  1.9177647864572600  3.6200235293425020 48.2088152467144155
  0.6392549288192405  1.8100117646729867 46.9343151586271716
  1.9177647864572736  3.6200235293416734 50.7039307714499543
  0.6392549288192481  1.8100117646720499 49.5258850975277980
