Cu40
1.0
   2.5636948460759439    0.0000000000000000    0.0000000000000002
   0.0000000000000006    3.6256120211066047    0.0000000000000002
   0.0000000000000000    0.0000000000000000   61.5286763058226711
Cu
40
direct
   0.7500000000000000    0.9999999999999999    0.0312500000000000 Cu
   0.2500000000000000    0.5000000000000001    0.0104166666666667 Cu
   0.7499999999999997    1.0000000000000000    0.0729166666666666 Cu
   0.2500000000000001    0.5000000000000000    0.0520833333333333 Cu
   0.7500000000000002    1.0000000000000000    0.1145833333333333 Cu
   0.2500000000000001    0.5000000000000002    0.0937500000000000 Cu
   0.7500000000000002    1.0000000000000000    0.1562500000000000 Cu
   0.2500000000000002    0.5000000000000001    0.1354166666666667 Cu
   0.7500000000000003    1.0000000000000000    0.1979166666666666 Cu
   0.2499999999999993    0.5000000000000003    0.1770833333333333 Cu
   0.7500000000000003    1.0000000000000002    0.2395833333333333 Cu
   0.2500000000000003    0.5000000000000003    0.2187500000000000 Cu
   0.7500000000000004    1.0000000000000002    0.2812500000000000 Cu
   0.2500000000000004    0.5000000000000003    0.2604166666666666 Cu
   0.7499999999999996    1.0000000000000002    0.3229166666666666 Cu
   0.2500000000000013    0.5000000000000004    0.3020833333333334 Cu
   0.7500000000000006    1.0000000000000002    0.3645833333333333 Cu
   0.2500000000000005    0.5000000000000003    0.3437500000000000 Cu
   0.7500000000000006    1.0000000000000002    0.4062500000000000 Cu
   0.2500000000000006    0.5000000000000006    0.3854166666666666 Cu
   0.7500000000000007    1.0000000000000004    0.4479166666666666 Cu
   0.2500000000000006    0.5000000000000003    0.4270833333333333 Cu
   0.7500000000000007    1.0000000000000004    0.4895833333333333 Cu
   0.2500000000000007    0.5000000000000006    0.4687500000000000 Cu
   0.7500000000000008    1.0000000000000004    0.5312500000000000 Cu
   0.2500000000000008    0.5000000000000004    0.5104166666666666 Cu
   0.7500000000000009    1.0000000000000004    0.5729166666666666 Cu
   0.2499999999999973    0.5000000000000007    0.5520833333333331 Cu
   0.7500000000000009    1.0000000000000004    0.6145833333333333 Cu
   0.2500000000000009    0.5000000000000008    0.5937499999999999 Cu
   0.7499999999999992    1.0000000000000007    0.6562500000000000 Cu
   0.2500000000000009    0.5000000000000008    0.6354166666666666 Cu
   0.7500000000000010    1.0000000000000007    0.6979166666666665 Cu
   0.2499999999999974    0.5000000000000008    0.6770833333333333 Cu
   0.7500000000000011    1.0000000000000007    0.7395833333333333 Cu
   0.2500000000000011    0.5000000000000007    0.7187499999999999 Cu
   0.7500000000000011    1.0000000000000007    0.7812500000000001 Cu
   0.2499999999999976    0.5000000000000009    0.7604166666666666 Cu
   0.7499999999999977    1.0000000000000007    0.8229166666666664 Cu
   0.2499999999999976    0.5000000000000008    0.8020833333333333 Cu
