Cu5
1.0
   2.5636948460759439    0.0000000000000000    0.0000000000000002
   1.2818474230379713    2.2202248642530038    0.0000000000000002
   0.0000000000000000    0.0000000000000000   20.9324807636304158
Cu
5
direct
   0.6666666666666666    0.6666666666666666    0.0500000000000000 Cu
   1.0000000000000002    1.0000000000000000    0.1500000000000000 Cu
   0.3333333333333339    0.3333333333333334    0.2499999999999999 Cu
   0.6666666666666674    0.6666666666666669    0.3499999999999999 Cu
   1.0000000000000007    1.0000000000000000    0.4499999999999999 Cu
