Cu8
1.0
   2.5636948460759439    0.0000000000000000    0.0000000000000002
   0.0000000000000006    3.6256120211066047    0.0000000000000002
   0.0000000000000000    0.0000000000000000   20.5095587686075547
Cu
8
direct
   0.7500000000000001    0.9999999999999999    0.0937500000000000 Cu
   0.2500000000000000    0.5000000000000001    0.0312500000000000 Cu
   0.7500000000000003    1.0000000000000000    0.2187500000000000 Cu
   0.2500000000000003    0.5000000000000000    0.1562500000000000 Cu
   0.7500000000000007    1.0000000000000000    0.3437500000000000 Cu
   0.2500000000000006    0.5000000000000002    0.2812500000000000 Cu
   0.7500000000000007    1.0000000000000000    0.4687499999999999 Cu
   0.2500000000000007    0.5000000000000001    0.4062500000000000 Cu
