Fe54
1.0
   2.8536439842033707    0.0000000000000000    0.0000000000000002
   0.0000000000000005    2.8536439842033707    0.0000000000000002
   0.0000000000000000    0.0000000000000000   88.4629635103044905
Fe
54
direct
   0.0000000000000000    0.0000000000000000    0.0241935483870968 Fe
   0.5000000000000000    0.5000000000000000    0.0080645161290323 Fe
   0.0000000000000001    0.0000000000000001    0.0564516129032258 Fe
   0.5000000000000001    0.5000000000000001    0.0403225806451613 Fe
   0.0000000000000002    0.0000000000000002    0.0887096774193548 Fe
   0.5000000000000001    0.5000000000000001    0.0725806451612903 Fe
   0.0000000000000002    0.0000000000000002    0.1209677419354839 Fe
   0.5000000000000002    0.5000000000000002    0.1048387096774193 Fe
   0.0000000000000003    0.0000000000000003    0.1532258064516129 Fe
   0.5000000000000002    0.5000000000000002    0.1370967741935484 Fe
   0.0000000000000004    0.0000000000000004    0.1854838709677419 Fe
   0.5000000000000003    0.5000000000000003    0.1693548387096774 Fe
   0.0000000000000004    0.0000000000000004    0.2177419354838710 Fe
   0.5000000000000003    0.5000000000000003    0.2016129032258064 Fe
   0.0000000000000005    0.0000000000000005    0.2500000000000000 Fe
   0.5000000000000004    0.5000000000000004    0.2338709677419354 Fe
   0.0000000000000005    0.0000000000000005    0.2822580645161290 Fe
   0.5000000000000006    0.5000000000000006    0.2661290322580644 Fe
   0.0000000000000006    0.0000000000000006    0.3145161290322581 Fe
   0.5000000000000006    0.5000000000000006    0.2983870967741935 Fe
   0.0000000000000007    0.0000000000000007    0.3467741935483870 Fe
   0.5000000000000007    0.5000000000000007    0.3306451612903226 Fe
   0.0000000000000007    0.0000000000000007    0.3790322580645161 Fe
   0.5000000000000007    0.5000000000000007    0.3629032258064516 Fe
   0.0000000000000008    0.0000000000000008    0.4112903225806451 Fe
   0.5000000000000008    0.5000000000000008    0.3951612903225806 Fe
   0.0000000000000008    0.0000000000000008    0.4435483870967742 Fe
   0.5000000000000008    0.5000000000000008    0.4274193548387096 Fe
   0.0000000000000009    0.0000000000000009    0.4758064516129031 Fe
   0.5000000000000009    0.5000000000000009    0.4596774193548387 Fe
   0.0000000000000010    0.0000000000000010    0.5080645161290323 Fe
   0.5000000000000009    0.5000000000000009    0.4919354838709677 Fe
   0.0000000000000010    0.0000000000000010    0.5403225806451613 Fe
   0.5000000000000010    0.5000000000000010    0.5241935483870968 Fe
   0.0000000000000011    0.0000000000000011    0.5725806451612903 Fe
   0.5000000000000011    0.5000000000000011    0.5564516129032256 Fe
   0.0000000000000011    0.0000000000000011    0.6048387096774194 Fe
   0.5000000000000011    0.5000000000000011    0.5887096774193549 Fe
   0.0000000000000012    0.0000000000000012    0.6370967741935484 Fe
   0.5000000000000012    0.5000000000000012    0.6209677419354838 Fe
   0.0000000000000013    0.0000000000000013    0.6693548387096773 Fe
   0.5000000000000012    0.5000000000000012    0.6532258064516129 Fe
   0.0000000000000013    0.0000000000000013    0.7016129032258064 Fe
   0.5000000000000013    0.5000000000000013    0.6854838709677419 Fe
   0.0000000000000014    0.0000000000000014    0.7338709677419354 Fe
   0.5000000000000013    0.5000000000000013    0.7177419354838710 Fe
   0.0000000000000015    0.0000000000000015    0.7661290322580645 Fe
   0.5000000000000014    0.5000000000000014    0.7500000000000000 Fe
   0.0000000000000015    0.0000000000000015    0.7983870967741934 Fe
   0.5000000000000014    0.5000000000000014    0.7822580645161289 Fe
   0.0000000000000016    0.0000000000000016    0.8306451612903224 Fe
   0.5000000000000016    0.5000000000000016    0.8145161290322580 Fe
   0.0000000000000016    0.0000000000000016    0.8629032258064516 Fe
   0.5000000000000016    0.5000000000000016    0.8467741935483870 Fe
