Cu28
1.0
   2.5636948460759443    0.0000000000000000    0.0000000000000002
   0.0000000000000004    2.5636948460759443    0.0000000000000002
   0.0000000000000000    0.0000000000000000   61.6354043588122806
Cu
28
direct
   0.0000000000000015    1.0000000000000013    0.9558823529411765 Cu
   0.5000000000000017    0.5000000000000012    0.9852941176470589 Cu
   0.0000000000000014    1.0000000000000013    0.8970588235294118 Cu
   0.5000000000000016    0.5000000000000011    0.9264705882352942 Cu
   0.0000000000000013    1.0000000000000013    0.8382352941176471 Cu
   0.5000000000000016    0.5000000000000010    0.8676470588235294 Cu
   0.0000000000000013    1.0000000000000011    0.7794117647058822 Cu
   0.5000000000000014    0.5000000000000009    0.8088235294117647 Cu
   0.0000000000000012    1.0000000000000011    0.7205882352941176 Cu
   0.5000000000000013    0.5000000000000008    0.7500000000000000 Cu
   0.0000000000000011    1.0000000000000009    0.6617647058823529 Cu
   0.5000000000000012    0.5000000000000008    0.6911764705882353 Cu
   0.0000000000000010    1.0000000000000009    0.6029411764705881 Cu
   0.5000000000000011    0.5000000000000007    0.6323529411764706 Cu
   0.0000000000000009    1.0000000000000009    0.5441176470588237 Cu
   0.5000000000000011    0.5000000000000007    0.5735294117647058 Cu
   0.0000000000000008    1.0000000000000007    0.4852941176470589 Cu
   0.5000000000000010    0.5000000000000004    0.5147058823529411 Cu
   0.0000000000000007    1.0000000000000007    0.4264705882352940 Cu
   0.5000000000000009    0.5000000000000004    0.4558823529411764 Cu
   0.0000000000000007    1.0000000000000004    0.3676470588235294 Cu
   0.5000000000000008    0.5000000000000003    0.3970588235294119 Cu
   0.0000000000000006    1.0000000000000004    0.3088235294117647 Cu
   0.5000000000000007    0.5000000000000002    0.3382352941176471 Cu
   0.0000000000000005    1.0000000000000004    0.2500000000000000 Cu
   0.5000000000000007    0.5000000000000001    0.2794117647058824 Cu
   0.0000000000000004    1.0000000000000002    0.1911764705882354 Cu
   0.5000000000000006    0.5000000000000000    0.2205882352941178 Cu
