Cu
 1.0000000000000000
     2.5584620258292405   -0.0000000000000000    0.0000000000000002
     1.2792310129146192    2.2156931089864882    0.0000000000016186
     0.0000000000000041    0.0000000000665428   86.1745985132225059
 Cu 
  36
Cartesian
  3.8376930387438608  2.2156931090603673 85.0278154287834980
  1.2792310129146671  0.7385643697321905 82.9324998898777324
  2.5584620258293413  1.4771287393883554 80.8439185114136905
  3.8376930387439607  2.2156931090454175 78.7450841671760600
  1.2792310129146922  0.7385643697189194 76.6480308866253353
  2.5584620258293289  1.4771287393804589 74.5512153135351952
  3.8376930387439758  2.2156931090419469 72.4544056839262112
  1.2792310129147404  0.7385643697164337 70.3576110324108157
  2.5584620258293840  1.4771287393771071 68.2609732477614273
  3.8376930387440233  2.2156931090376930 66.1641865559558084
  1.2792310129147464  0.7385643697117630 64.0674538161247540
  2.5584620258293600  1.4771287393722843 61.9708743413919194
  3.8376930387439834  2.2156931090328378 59.8740515537942102
  1.2792310129147404  0.7385643697068893 57.7774434130074894
  2.5584620258293915  1.4771287393674102 55.6806116725873963
  3.8376930387440007  2.2156931090280043 53.5837681736238025
  1.2792310129146862  0.7385643697020690 51.4871541497385152
  2.5584620258293018  1.4771287393625947 49.3903597222694515
  3.8376930387439616  2.2156931090231526 47.2933361706111413
  1.2792310129147511  0.7385643696972087 45.1965417431403225
  2.5584620258293609  1.4771287393577561 43.0999277192562502
  3.8376930387439501  2.2156931090183205 41.0030842202922940
  1.2792310129147229  0.7385643696923950 38.9062524798706804
  2.5584620258294124  1.4771287393529202 36.8096443390857502
  3.8376930387440726  2.2156931090134617 34.7128215514886804
  1.2792310129148261  0.7385643696874661 32.6162420767545811
  2.5584620258294342  1.4771287393480004 30.5195093369257151
  3.8376930387441224  2.2156931090086278 28.4227226451205937
  1.2792310129148963  0.7385643696828476 26.3260848604700932
  2.5584620258294937  1.4771287393438086 24.2292902089561650
  3.8376930387440948  2.2156931090052372 22.1324805793467903
  1.2792310129148272  0.7385643696802794 20.0356650062543835
  2.5584620258294595  1.4771287393403199 17.9386117257045754
  3.8376930387440491  2.2156931089974137 15.8397773814665257
  1.2792310129147959  0.7385643696671131 13.7511960030003966
  2.5584620258294519  1.4771287393253738 11.6558804640963434
