19
Properties=species:S:1:pos:R:3 pbc="F F F"
Au      -2.08822749      -2.08822749       0.00000000
Au      -2.08822749       0.00000000      -2.08822749
Au      -4.17645498       0.00000000       0.00000000
Au      -2.08822749       0.00000000       2.08822749
Au      -2.08822749       2.08822749       0.00000000
Au       0.00000000      -2.08822749      -2.08822749
Au       0.00000000      -4.17645498       0.00000000
Au       0.00000000      -2.08822749       2.08822749
Au       2.08822749      -2.08822749       0.00000000
Au       0.00000000       0.00000000      -4.17645498
Au       0.00000000       2.08822749      -2.08822749
Au       2.08822749       0.00000000      -2.08822749
Au       0.00000000       0.00000000       0.00000000
Au       0.00000000       2.08822749       2.08822749
Au       2.08822749       0.00000000       2.08822749
Au       2.08822749       2.08822749       0.00000000
Au       0.00000000       0.00000000       4.17645498
Au       0.00000000       4.17645498       0.00000000
Au       4.17645498       0.00000000       0.00000000
