Ag
 1.0000000000000000
     9.6088558097292260   -0.0000000000000000    0.0000000000000008
     0.0000000000000004    5.0951771415520284   -0.0000000000006576
    -0.0000000000000042   -0.0000000000067862   60.6592530845624935
 Ag 
 136
Cartesian
 -0.0000000000580043 -1.2737942853721489  0.8732685194110797
  4.8044279048371790 -1.2737942853962543  0.8732685194110802
  7.2066418573450868  0.3507336637704846  0.8958638827899742
  2.4022139524805226  2.1968549069240253  0.8958638828000902
 -0.0000000000450280 -3.8213828562010170  2.1970957232618891
  4.8044279047643741 -3.8213828561851848  2.1970957232619042
  7.2066418573584299 -2.1759575817647767  2.2103857053445086
  2.4022139524938577 -0.3716309889365000  2.2103857053564542
 -0.0000000000671133 -6.3689714269271729  3.7380308688621495
  4.8044279048167349 -6.3689714269475228  3.7380308688621580
  7.2066418573594344 -4.6759521859046114  3.7539005827939080
  2.4022139524948614 -2.9668135264954247  3.7539005827752243
 -0.0000000000602510 -8.9165599977423415  5.2202151756307567
  4.8044279047925746 -8.9165599977278216  5.2202151756307424
  7.2066418573556223 -7.2192227815221175  5.2243990644298437
  2.4022139524910262 -5.5187200723449692  5.2243990644260858
 -0.0000000000665482 -11.4641485684931084  6.6919762584229208
  4.8044279048054994 -11.4641485685057436  6.6919762584229749
  7.2066418573623841 -9.7637418240573535  6.6972354610624292
  2.4022139524978203 -8.0693781714089656  6.6972354610644658
 -0.0000000000641952 -14.0117371392817809  8.1717366118480346
  4.8044279048029956 -14.0117371392714496  8.1717366118482087
  7.2066418573544979 -12.3094125832265373  8.1732418490277343
  2.4022139524899497 -10.6188845537861436  8.1732418490291963
 -0.0000000000535382 -16.5593257100576956  9.6475018375079440
  4.8044279047986844 -16.5593257100665241  9.6475018375079404
  7.2066418573581554 -14.8563574792404562  9.6491396777392104
  2.4022139524936561 -13.1671167992910050  9.6491396777358442
 -0.0000000000694756 -19.1069142808221706 11.1247254054094871
  4.8044279048149496 -19.1069142808147738 11.1247254054095333
  7.2066418573523450 -17.4036022063934190 11.1251761217432943
  2.4022139524877661 -15.7150492137605973 11.1251761217415783
 -0.0000000000435032 -21.6545028516203857 12.6011469396241740
  4.8044279047938812 -21.6545028516269156 12.6011469396242894
  7.2066418573547502 -19.9509619292802114 12.6015633993556389
  2.4022139524900679 -18.2628666323191524 12.6015633993535516
 -0.0000000000740713 -24.2020914223634556 14.0778164258745662
  4.8044279048251397 -24.2020914223582189 14.0778164258747278
  7.2066418573503856 -22.4984829563945254 14.0779227224069849
  2.4022139524857726 -20.8105227468965843 14.0779227224063810
 -0.0000000000339476 -26.7496799931819318 15.5544745419754715
  4.8044279047892005 -26.7496799931863549 15.5544745419753738
  7.2066418573515776 -25.0460664198525897 15.5544560256887081
  2.4022139524869783 -23.3581164248190838 15.5544560256862798
 -0.0000000000777050 -29.2972685639072168 17.0308695674850163
  4.8044279048341165 -29.2972685639034616 17.0308695674850412
  7.2066418573482487 -27.5936322044668856 17.0307533697352831
  2.4022139524835926 -25.9057277819563083 17.0307533697344340
 -0.0000000000263776 -31.8448571347411047 18.5074945741103534
  4.8044279047863956 -31.8448571347440677 18.5074945741103889
  7.2066418573486892 -30.1413936013090336 18.5074032961653607
  2.4022139524841695 -28.4531435264445243 18.5074032961635560
 -0.0000000000789500 -34.3924457054544348 19.9838617446738169
  4.8044279048404812 -34.3924457054517347 19.9838617446739839
  7.2066418573460522 -32.6888073637702874 19.9837760757279632
  2.4022139524816843 -31.0009069057751603 19.9837760757268939
 -0.0000000000222778 -36.9400342762974248 21.4603681426819577
  4.8044279047861131 -36.9400342762982774 21.4603681426817552
  7.2066418573461668 -35.2364469518383956 21.4602745094722636
  2.4022139524816990 -33.5484444590105539 21.4602745094710450
 -0.0000000000772842 -39.4876228470054329 22.9368365753335830
  4.8044279048428074 -39.4876228470055892 22.9368365753336754
  7.2066418573449447 -37.7841022651431473 22.9368270480748926
  2.4022139524802975 -36.0959662875085243 22.9368270480733507
 -0.0000000000228196 -42.0352114178495739 24.4131777619459740
  4.8044279047893719 -42.0352114178474565 24.4131777619459989
  7.2066418573436373 -40.3319320481200592 24.4131257310154126
  2.4022139524789692 -38.6433136458428308 24.4131257310145493
 -0.0000000000714420 -44.5827999885619874 25.8896174789219629
  4.8044279048402476 -44.5827999885654975 25.8896174789221618
  7.2066418573445405 -42.8795206190083036 25.8896695098534444
  2.4022139524799653 -41.1909022167310752 25.8896695098516751
 -0.0000000000283087 -47.1303885593965433 27.3659586655341727
  4.8044279047965377 -47.1303885593908092 27.3659586655341904
  7.2066418573414852 -45.4268679773666264 27.3659681927934528
  2.4022139524769832 -43.7387319997318897 27.3659681927929910
 -0.0000000000618135 -49.6779771301234376 28.8424270981861000
  4.8044279048330019 -49.6779771301305431 28.8424270981860964
  7.2066418573444073 -47.9743898058179283 28.8425207313968563
  2.4022139524798156 -46.2863873129894898 28.8425207313946181
 -0.0000000000378557 -52.2255657009389651 30.3189334961941697
  4.8044279048069223 -52.2255657009296499 30.3189334961941555
  7.2066418573400091 -50.5219273591217402 30.3190191651401655
  2.4022139524754351 -48.8340269011262791 30.3190191651399985
 -0.0000000000508127 -54.7731542716877087 31.7953006667572744
  4.8044279048230809 -54.7731542716975781 31.7953006667574130
  7.2066418573451738 -53.0696907383659351 31.7953919447043738
  2.4022139524805044 -51.3814406635003422 31.7953919447013327
 -0.0000000000484975 -57.3207428424808896 33.2719256733823201
  4.8044279048169090 -57.3207428424691230 33.2719256733827535
  7.2066418573394229 -55.6171064829546964 33.2720418711318899
  2.4022139524749941 -53.9292020604435649 33.2720418711324868
 -0.0000000000421889 -59.8683314132488675 34.7483206988919306
  4.8044279048137675 -59.8683314132603641 34.7483206988919946
  7.2066418573456259 -58.1647178399843483 34.7483392151810264
  2.4022139524813486 -56.4767678449494710 34.7483392151784685
 -0.0000000000543175 -62.4159199840269210 36.2249788149931717
  4.8044279048212397 -62.4159199840152965 36.2249788149928307
  7.2066418573402595 -60.7123115180104733 36.2248725184624831
  2.4022139524755386 -59.0243513085126352 36.2248725184584970
 -0.0000000000451219 -64.9635085548004980 37.7016483012430399
  4.8044279048144016 -64.9635085548112698 37.7016483012432033
  7.2066418573467432 -63.2599676325009810 37.7012318415144421
  2.4022139524816368 -61.5718723355399575 37.7012318415105909
 -0.0000000000484104 -67.5110971255880230 39.1780698354577126
  4.8044279048129841 -67.5110971255785302 39.1780698354579258
  7.2066418573419444 -65.8077850511116935 39.1776191191227596
  2.4022139524774189 -64.1192320584791418 39.1776191191263763
 -0.0000000000591710 -70.0586856963313522 40.6552934033596785
  4.8044279048250056 -70.0586856963401203 40.6552934033595292
  7.2066418573474493 -68.3557174655867925 40.6536555631238770
  2.4022139524831085 -66.6664767856363056 40.6536555631353238
 -0.0000000000179593 -72.6062742671716563 42.1310586290197620
  4.8044279047790521 -72.6062742671644656 42.1310586290196980
  7.2066418573440769 -70.9039497110024541 42.1295533918506635
  2.4022139524793311 -69.2134216815627354 42.1295533918270806
 -0.0000000001136510 -75.1538628378383322 43.6108189824448331
  4.8044279048750251 -75.1538628378468161 43.6108189824449326
  7.2066418573495348 -73.4534560935813090 43.6055597798201333
  2.4022139524848591 -71.7590924409322923 43.6055597797869794
  0.0000000000149184 -77.7014514087880883 45.0825800652366695
  4.8044279047424761 -77.7014514087794481 45.0825800652366553
  7.2066418573448896 -76.0041141923078527 45.0783961764291590
  2.4022139524803183 -74.3036114831327836 45.0783961764495231
 -0.0000000001393167 -80.2490399793331619 46.5647643720055200
  4.8044279049104714 -80.2490399793466622 46.5647643720049516
  7.2066418573463071 -78.5560207386385940 46.5488946580086420
  2.4022139524818371 -76.8468820792268161 46.5488946581566552
  0.0000000001835653 -82.7966285504196549 48.1056995176056787
  4.8044279045643474 -82.7966285504107447 48.1056995176056006
  7.2066418573474014 -81.1512032754567230 48.0924095355795913
  2.4022139524825463 -79.3468766826342033 48.0924095354550474
 -0.0000000001651390 -85.3442171208871230 49.4295267214566820
  4.8044279049608312 -85.3442171209030533 49.4295267214565470
  7.2066418573348265 -83.7196891720935952 49.4069313581230958
  2.4022139524700639 -81.8735679289385416 49.4069313580217582
