Rh
 1.0000000000000000
     2.7030227606845147   -0.0000000000000000    0.0000000000000002
    -0.0000000000000001    3.8511137603717667   -0.0000000000001079
     0.0000000000000498   -0.0000000000006197   63.0717201943300765
 Rh 
  38
Cartesian
  2.0272670705132803  3.8511137603709860  2.1337671974010428
  0.6757556901710253  1.9255568801859380  0.9679764216677920
  2.0272670705132683  3.8511137603720522  4.8437639841406153
  0.6757556901710149  1.9255568801860539  3.5413884570364180
  2.0272670705132518  3.8511137603726358  7.5901586632820184
  0.6757556901710076  1.9255568801865657  6.2519754446124978
  2.0272670705132421  3.8511137603725962 10.3272297247556235
  0.6757556901709889  1.9255568801867979  8.9693746913856103
  2.0272670705132785  3.8511137603722512 13.0636468051736845
  0.6757556901710048  1.9255568801865406 11.6999692110652393
  2.0272670705132616  3.8511137603719710 15.7984717174259277
  0.6757556901710172  1.9255568801862122 14.4326798932149813
  2.0272670705132527  3.8511137603717649 18.5327077181986226
  0.6757556901710041  1.9255568801859795 17.1662117988548601
  2.0272670705132496  3.8511137603716046 21.2668110402500226
  0.6757556901709888  1.9255568801857943 19.9000149985696808
  2.0272670705132558  3.8511137603715162 24.0008601489552937
  0.6757556901709921  1.9255568801856693 22.6339265500914486
  2.0272670705132683  3.8511137603714838 26.7348196211790707
  0.6757556901710026  1.9255568801856142 25.3679057567445589
  2.0272670705132825  3.8511137603714443 29.4687988278321562
  0.6757556901710194  1.9255568801855862 28.1018652289683502
  2.0272670705132629  3.8511137603713386 32.2027103793537961
  0.6757556901710157  1.9255568801855187 30.8359143376735254
  2.0272670705132629  3.8511137603711592 34.9365135790686168
  0.6757556901710077  1.9255568801853715 33.5700176597248330
  2.0272670705132585  3.8511137603709416 37.6700454847085382
  0.6757556901710052  1.9255568801851728 36.3042536604975155
  2.0272670705132612  3.8511137603706329 40.4027561668585378
  0.6757556901709997  1.9255568801849123 39.0390785727498510
  2.0272670705132865 -0.0000000000013923 43.1333506865384493
  0.6757556901710253  1.9255568801845786 41.7754956531681643
  2.0272670705132518  3.8511137603705863 45.8507499333111284
  0.6757556901710181  1.9255568801845317 44.5125667146421122
  2.0272670705132492  3.8511137603711978 48.5613369208903123
  0.6757556901709896  1.9255568801850982 47.2589613937826769
  2.0272670705132931  3.8511137603715748 51.1347489562540929
  0.6757556901710263  1.9255568801857221 49.9689581805242042
