Fe5
1.0
   2.4713281836767584    0.0000000000000000    0.0000000000000002
  -0.8237760612255860    2.3299905562870262    0.0000000000000002
   0.0000000000000000    0.0000000000000000   20.1783101232240085
Fe
5
direct
   0.7500000000000000    0.2500000000000001    0.0500000000000000 Fe
   0.2500000000000001    0.7500000000000003    0.1500000000000000 Fe
   0.7500000000000002    0.2500000000000002    0.2500000000000000 Fe
   0.2500000000000003    0.7500000000000000    0.3500000000000000 Fe
   0.7500000000000002    0.2500000000000008    0.4500000000000000 Fe
