225
Properties=species:S:1:pos:R:3 pbc="F F F"
Rh      -9.62640887      -1.92528177       0.00000000
Rh      -9.62640887       0.00000000      -1.92528177
Rh      -9.62640887       0.00000000       1.92528177
Rh      -9.62640887       1.92528177       0.00000000
Rh      -5.77584532      -5.77584532       0.00000000
Rh      -7.70112710      -1.92528177      -1.92528177
Rh      -5.77584532      -3.85056355      -1.92528177
Rh      -5.77584532      -1.92528177      -3.85056355
Rh      -7.70112710      -3.85056355       0.00000000
Rh      -7.70112710      -1.92528177       1.92528177
Rh      -5.77584532      -3.85056355       1.92528177
Rh      -5.77584532      -1.92528177       0.00000000
Rh      -5.77584532      -1.92528177       3.85056355
Rh      -5.77584532       0.00000000      -5.77584532
Rh      -7.70112710       0.00000000      -3.85056355
Rh      -7.70112710       1.92528177      -1.92528177
Rh      -5.77584532       0.00000000      -1.92528177
Rh      -5.77584532       1.92528177      -3.85056355
Rh      -7.70112710       0.00000000       0.00000000
Rh      -7.70112710       1.92528177       1.92528177
Rh      -5.77584532       0.00000000       1.92528177
Rh      -5.77584532       1.92528177       0.00000000
Rh      -7.70112710       0.00000000       3.85056355
Rh      -5.77584532       0.00000000       5.77584532
Rh      -5.77584532       1.92528177       3.85056355
Rh      -5.77584532       3.85056355      -1.92528177
Rh      -7.70112710       3.85056355       0.00000000
Rh      -5.77584532       3.85056355       1.92528177
Rh      -5.77584532       5.77584532       0.00000000
Rh      -1.92528177      -9.62640887       0.00000000
Rh      -3.85056355      -5.77584532      -1.92528177
Rh      -1.92528177      -7.70112710      -1.92528177
Rh      -1.92528177      -5.77584532      -3.85056355
Rh      -3.85056355      -7.70112710       0.00000000
Rh      -3.85056355      -5.77584532       1.92528177
Rh      -1.92528177      -7.70112710       1.92528177
Rh      -1.92528177      -5.77584532       0.00000000
Rh      -1.92528177      -5.77584532       3.85056355
Rh      -3.85056355      -1.92528177      -5.77584532
Rh      -1.92528177      -3.85056355      -5.77584532
Rh      -1.92528177      -1.92528177      -7.70112710
Rh      -3.85056355      -3.85056355      -3.85056355
Rh      -3.85056355      -1.92528177      -1.92528177
Rh      -1.92528177      -3.85056355      -1.92528177
Rh      -1.92528177      -1.92528177      -3.85056355
Rh      -3.85056355      -3.85056355       0.00000000
Rh      -3.85056355      -1.92528177       1.92528177
Rh      -1.92528177      -3.85056355       1.92528177
Rh      -1.92528177      -1.92528177       0.00000000
Rh      -3.85056355      -3.85056355       3.85056355
Rh      -3.85056355      -1.92528177       5.77584532
Rh      -1.92528177      -3.85056355       5.77584532
Rh      -1.92528177      -1.92528177       3.85056355
Rh      -1.92528177      -1.92528177       7.70112710
Rh      -1.92528177       0.00000000      -9.62640887
Rh      -3.85056355       0.00000000      -7.70112710
Rh      -3.85056355       1.92528177      -5.77584532
Rh      -1.92528177       0.00000000      -5.77584532
Rh      -1.92528177       1.92528177      -7.70112710
Rh      -3.85056355       0.00000000      -3.85056355
Rh      -3.85056355       1.92528177      -1.92528177
Rh      -1.92528177       0.00000000      -1.92528177
Rh      -1.92528177       1.92528177      -3.85056355
Rh      -3.85056355       0.00000000       0.00000000
Rh      -3.85056355       1.92528177       1.92528177
Rh      -1.92528177       0.00000000       1.92528177
Rh      -1.92528177       1.92528177       0.00000000
Rh      -3.85056355       0.00000000       3.85056355
Rh      -3.85056355       1.92528177       5.77584532
Rh      -1.92528177       0.00000000       5.77584532
Rh      -1.92528177       1.92528177       3.85056355
Rh      -3.85056355       0.00000000       7.70112710
Rh      -1.92528177       0.00000000       9.62640887
Rh      -1.92528177       1.92528177       7.70112710
Rh      -1.92528177       3.85056355      -5.77584532
Rh      -3.85056355       3.85056355      -3.85056355
Rh      -3.85056355       5.77584532      -1.92528177
Rh      -1.92528177       3.85056355      -1.92528177
Rh      -1.92528177       5.77584532      -3.85056355
Rh      -3.85056355       3.85056355       0.00000000
Rh      -3.85056355       5.77584532       1.92528177
Rh      -1.92528177       3.85056355       1.92528177
Rh      -1.92528177       5.77584532       0.00000000
Rh      -3.85056355       3.85056355       3.85056355
Rh      -1.92528177       3.85056355       5.77584532
Rh      -1.92528177       5.77584532       3.85056355
Rh      -1.92528177       7.70112710      -1.92528177
Rh      -3.85056355       7.70112710       0.00000000
Rh      -1.92528177       7.70112710       1.92528177
Rh      -1.92528177       9.62640887       0.00000000
Rh       0.00000000      -9.62640887      -1.92528177
Rh       0.00000000      -9.62640887       1.92528177
Rh       1.92528177      -9.62640887       0.00000000
Rh       0.00000000      -5.77584532      -5.77584532
Rh       0.00000000      -7.70112710      -3.85056355
Rh       0.00000000      -5.77584532      -1.92528177
Rh       1.92528177      -7.70112710      -1.92528177
Rh       1.92528177      -5.77584532      -3.85056355
Rh       0.00000000      -7.70112710       0.00000000
Rh       0.00000000      -5.77584532       1.92528177
Rh       1.92528177      -7.70112710       1.92528177
Rh       1.92528177      -5.77584532       0.00000000
Rh       0.00000000      -7.70112710       3.85056355
Rh       0.00000000      -5.77584532       5.77584532
Rh       1.92528177      -5.77584532       3.85056355
Rh       0.00000000      -1.92528177      -9.62640887
Rh       0.00000000      -3.85056355      -7.70112710
Rh       0.00000000      -1.92528177      -5.77584532
Rh       1.92528177      -3.85056355      -5.77584532
Rh       1.92528177      -1.92528177      -7.70112710
Rh       0.00000000      -3.85056355      -3.85056355
Rh       0.00000000      -1.92528177      -1.92528177
Rh       1.92528177      -3.85056355      -1.92528177
Rh       1.92528177      -1.92528177      -3.85056355
Rh       0.00000000      -3.85056355       0.00000000
Rh       0.00000000      -1.92528177       1.92528177
Rh       1.92528177      -3.85056355       1.92528177
Rh       1.92528177      -1.92528177       0.00000000
Rh       0.00000000      -3.85056355       3.85056355
Rh       0.00000000      -1.92528177       5.77584532
Rh       1.92528177      -3.85056355       5.77584532
Rh       1.92528177      -1.92528177       3.85056355
Rh       0.00000000      -3.85056355       7.70112710
Rh       0.00000000      -1.92528177       9.62640887
Rh       1.92528177      -1.92528177       7.70112710
Rh       0.00000000       1.92528177      -9.62640887
Rh       1.92528177       0.00000000      -9.62640887
Rh       0.00000000       0.00000000      -7.70112710
Rh       0.00000000       1.92528177      -5.77584532
Rh       1.92528177       0.00000000      -5.77584532
Rh       1.92528177       1.92528177      -7.70112710
Rh       0.00000000       0.00000000      -3.85056355
Rh       0.00000000       1.92528177      -1.92528177
Rh       1.92528177       0.00000000      -1.92528177
Rh       1.92528177       1.92528177      -3.85056355
Rh       0.00000000       0.00000000       0.00000000
Rh       0.00000000       1.92528177       1.92528177
Rh       1.92528177       0.00000000       1.92528177
Rh       1.92528177       1.92528177       0.00000000
Rh       0.00000000       0.00000000       3.85056355
Rh       0.00000000       1.92528177       5.77584532
Rh       1.92528177       0.00000000       5.77584532
Rh       1.92528177       1.92528177       3.85056355
Rh       0.00000000       0.00000000       7.70112710
Rh       0.00000000       1.92528177       9.62640887
Rh       1.92528177       0.00000000       9.62640887
Rh       1.92528177       1.92528177       7.70112710
Rh       0.00000000       3.85056355      -7.70112710
Rh       0.00000000       5.77584532      -5.77584532
Rh       1.92528177       3.85056355      -5.77584532
Rh       0.00000000       3.85056355      -3.85056355
Rh       0.00000000       5.77584532      -1.92528177
Rh       1.92528177       3.85056355      -1.92528177
Rh       1.92528177       5.77584532      -3.85056355
Rh       0.00000000       3.85056355       0.00000000
Rh       0.00000000       5.77584532       1.92528177
Rh       1.92528177       3.85056355       1.92528177
Rh       1.92528177       5.77584532       0.00000000
Rh       0.00000000       3.85056355       3.85056355
Rh       0.00000000       5.77584532       5.77584532
Rh       1.92528177       3.85056355       5.77584532
Rh       1.92528177       5.77584532       3.85056355
Rh       0.00000000       3.85056355       7.70112710
Rh       0.00000000       7.70112710      -3.85056355
Rh       0.00000000       9.62640887      -1.92528177
Rh       1.92528177       7.70112710      -1.92528177
Rh       0.00000000       7.70112710       0.00000000
Rh       0.00000000       9.62640887       1.92528177
Rh       1.92528177       7.70112710       1.92528177
Rh       1.92528177       9.62640887       0.00000000
Rh       0.00000000       7.70112710       3.85056355
Rh       3.85056355      -5.77584532      -1.92528177
Rh       3.85056355      -7.70112710       0.00000000
Rh       3.85056355      -5.77584532       1.92528177
Rh       5.77584532      -5.77584532       0.00000000
Rh       3.85056355      -1.92528177      -5.77584532
Rh       3.85056355      -3.85056355      -3.85056355
Rh       3.85056355      -1.92528177      -1.92528177
Rh       5.77584532      -3.85056355      -1.92528177
Rh       5.77584532      -1.92528177      -3.85056355
Rh       3.85056355      -3.85056355       0.00000000
Rh       3.85056355      -1.92528177       1.92528177
Rh       5.77584532      -3.85056355       1.92528177
Rh       5.77584532      -1.92528177       0.00000000
Rh       3.85056355      -3.85056355       3.85056355
Rh       3.85056355      -1.92528177       5.77584532
Rh       5.77584532      -1.92528177       3.85056355
Rh       3.85056355       0.00000000      -7.70112710
Rh       3.85056355       1.92528177      -5.77584532
Rh       5.77584532       0.00000000      -5.77584532
Rh       3.85056355       0.00000000      -3.85056355
Rh       3.85056355       1.92528177      -1.92528177
Rh       5.77584532       0.00000000      -1.92528177
Rh       5.77584532       1.92528177      -3.85056355
Rh       3.85056355       0.00000000       0.00000000
Rh       3.85056355       1.92528177       1.92528177
Rh       5.77584532       0.00000000       1.92528177
Rh       5.77584532       1.92528177       0.00000000
Rh       3.85056355       0.00000000       3.85056355
Rh       3.85056355       1.92528177       5.77584532
Rh       5.77584532       0.00000000       5.77584532
Rh       5.77584532       1.92528177       3.85056355
Rh       3.85056355       0.00000000       7.70112710
Rh       3.85056355       3.85056355      -3.85056355
Rh       3.85056355       5.77584532      -1.92528177
Rh       5.77584532       3.85056355      -1.92528177
Rh       3.85056355       3.85056355       0.00000000
Rh       3.85056355       5.77584532       1.92528177
Rh       5.77584532       3.85056355       1.92528177
Rh       5.77584532       5.77584532       0.00000000
Rh       3.85056355       3.85056355       3.85056355
Rh       3.85056355       7.70112710       0.00000000
Rh       7.70112710      -1.92528177      -1.92528177
Rh       7.70112710      -3.85056355       0.00000000
Rh       7.70112710      -1.92528177       1.92528177
Rh       9.62640887      -1.92528177       0.00000000
Rh       7.70112710       0.00000000      -3.85056355
Rh       7.70112710       1.92528177      -1.92528177
Rh       9.62640887       0.00000000      -1.92528177
Rh       7.70112710       0.00000000       0.00000000
Rh       7.70112710       1.92528177       1.92528177
Rh       9.62640887       0.00000000       1.92528177
Rh       9.62640887       1.92528177       0.00000000
Rh       7.70112710       0.00000000       3.85056355
Rh       7.70112710       3.85056355       0.00000000
