Fe
 1.0000000000000000
     2.5155358203829943    0.0000000000000000   -0.0000000000000006
    -0.0000000000000008    2.5155358203747760   -0.0000000000091016
     0.0000000000001771   -0.0000000000676518   47.7399227385471647
 Fe 
  18
Cartesian
 -0.0000000000001281  0.0000000000064150  2.8431778873000875
  1.2577679101906063  1.2577679101966601  1.0356494090862802
  0.0000000000002900 -0.0000000000077408  6.6045968858208495
  1.2577679101910793  1.2577679101828001  4.7600145257844115
 -0.0000000000002549 -0.0000000000101533 10.2252985288303968
  1.2577679101916068  1.2577679101776997  8.4177091878054018
 -0.0000000000005092 -0.0000000000164031 13.8291548000101781
  1.2577679101900221  1.2577679101751582 12.0289716515809975
  0.0000000000005891 -0.0000000000258960 17.4239659287190243
  1.2577679101916630  1.2577679101656793 15.6267498133346372
 -0.0000000000004195 -0.0000000000347627 21.0217440904772133
  1.2577679101908523  1.2577679101567782 19.2215609420448352
 -0.0000000000002429 -0.0000000000365079 24.6330065542581629
  1.2577679101911441  1.2577679101503849 22.8254172132304518
  0.0000000000004893 -0.0000000000427957 28.2907012162811036
  1.2577679101914552  1.2577679101480452 26.4461188562438174
 -0.0000000000003004 -0.0000000000564812 32.0150663329799130
  1.2577679101908630  1.2577679101341619 30.2075378547657714
