Fe18
1.0
   2.8536439842033707    0.0000000000000000    0.0000000000000002
   0.0000000000000005    2.8536439842033707    0.0000000000000002
   0.0000000000000000    0.0000000000000000   37.0973717946438200
Fe
18
direct
   0.0000000000000000    0.0000000000000000    0.0576923076923077 Fe
   0.5000000000000000    0.5000000000000000    0.0192307692307692 Fe
   0.0000000000000001    0.0000000000000001    0.1346153846153846 Fe
   0.5000000000000001    0.5000000000000001    0.0961538461538462 Fe
   0.0000000000000002    0.0000000000000002    0.2115384615384616 Fe
   0.5000000000000001    0.5000000000000001    0.1730769230769231 Fe
   0.0000000000000002    0.0000000000000002    0.2884615384615385 Fe
   0.5000000000000002    0.5000000000000002    0.2500000000000000 Fe
   0.0000000000000003    0.0000000000000003    0.3653846153846154 Fe
   0.5000000000000002    0.5000000000000002    0.3269230769230769 Fe
   0.0000000000000004    0.0000000000000004    0.4423076923076923 Fe
   0.5000000000000003    0.5000000000000003    0.4038461538461539 Fe
   0.0000000000000004    0.0000000000000004    0.5192307692307693 Fe
   0.5000000000000003    0.5000000000000003    0.4807692307692308 Fe
   0.0000000000000005    0.0000000000000005    0.5961538461538461 Fe
   0.5000000000000004    0.5000000000000004    0.5576923076923077 Fe
   0.0000000000000005    0.0000000000000005    0.6730769230769231 Fe
   0.5000000000000006    0.5000000000000006    0.6346153846153847 Fe
