459
Properties=species:S:1:pos:R:3 pbc="F F F"
Au     -10.44113744      -6.26468246       0.00000000
Au     -12.52936493      -2.08822749      -2.08822749
Au     -10.44113744      -4.17645498      -2.08822749
Au     -10.44113744      -2.08822749      -4.17645498
Au     -12.52936493      -4.17645498       0.00000000
Au     -12.52936493      -2.08822749       2.08822749
Au     -10.44113744      -4.17645498       2.08822749
Au     -10.44113744      -2.08822749       0.00000000
Au     -10.44113744      -2.08822749       4.17645498
Au     -10.44113744       0.00000000      -6.26468246
Au     -12.52936493       0.00000000      -4.17645498
Au     -12.52936493       2.08822749      -2.08822749
Au     -10.44113744       0.00000000      -2.08822749
Au     -10.44113744       2.08822749      -4.17645498
Au     -12.52936493       0.00000000       0.00000000
Au     -12.52936493       2.08822749       2.08822749
Au     -10.44113744       0.00000000       2.08822749
Au     -10.44113744       2.08822749       0.00000000
Au     -12.52936493       0.00000000       4.17645498
Au     -10.44113744       0.00000000       6.26468246
Au     -10.44113744       2.08822749       4.17645498
Au     -10.44113744       4.17645498      -2.08822749
Au     -12.52936493       4.17645498       0.00000000
Au     -10.44113744       4.17645498       2.08822749
Au     -10.44113744       6.26468246       0.00000000
Au      -6.26468246     -10.44113744       0.00000000
Au      -8.35290995      -6.26468246      -2.08822749
Au      -6.26468246      -8.35290995      -2.08822749
Au      -6.26468246      -6.26468246      -4.17645498
Au      -8.35290995      -8.35290995       0.00000000
Au      -8.35290995      -6.26468246       2.08822749
Au      -6.26468246      -8.35290995       2.08822749
Au      -6.26468246      -6.26468246       0.00000000
Au      -6.26468246      -6.26468246       4.17645498
Au      -8.35290995      -2.08822749      -6.26468246
Au      -6.26468246      -4.17645498      -6.26468246
Au      -6.26468246      -2.08822749      -8.35290995
Au      -8.35290995      -4.17645498      -4.17645498
Au      -8.35290995      -2.08822749      -2.08822749
Au      -6.26468246      -4.17645498      -2.08822749
Au      -6.26468246      -2.08822749      -4.17645498
Au      -8.35290995      -4.17645498       0.00000000
Au      -8.35290995      -2.08822749       2.08822749
Au      -6.26468246      -4.17645498       2.08822749
Au      -6.26468246      -2.08822749       0.00000000
Au      -8.35290995      -4.17645498       4.17645498
Au      -8.35290995      -2.08822749       6.26468246
Au      -6.26468246      -4.17645498       6.26468246
Au      -6.26468246      -2.08822749       4.17645498
Au      -6.26468246      -2.08822749       8.35290995
Au      -6.26468246       0.00000000     -10.44113744
Au      -8.35290995       0.00000000      -8.35290995
Au      -8.35290995       2.08822749      -6.26468246
Au      -6.26468246       0.00000000      -6.26468246
Au      -6.26468246       2.08822749      -8.35290995
Au      -8.35290995       0.00000000      -4.17645498
Au      -8.35290995       2.08822749      -2.08822749
Au      -6.26468246       0.00000000      -2.08822749
Au      -6.26468246       2.08822749      -4.17645498
Au      -8.35290995       0.00000000       0.00000000
Au      -8.35290995       2.08822749       2.08822749
Au      -6.26468246       0.00000000       2.08822749
Au      -6.26468246       2.08822749       0.00000000
Au      -8.35290995       0.00000000       4.17645498
Au      -8.35290995       2.08822749       6.26468246
Au      -6.26468246       0.00000000       6.26468246
Au      -6.26468246       2.08822749       4.17645498
Au      -8.35290995       0.00000000       8.35290995
Au      -6.26468246       0.00000000      10.44113744
Au      -6.26468246       2.08822749       8.35290995
Au      -6.26468246       4.17645498      -6.26468246
Au      -8.35290995       4.17645498      -4.17645498
Au      -8.35290995       6.26468246      -2.08822749
Au      -6.26468246       4.17645498      -2.08822749
Au      -6.26468246       6.26468246      -4.17645498
Au      -8.35290995       4.17645498       0.00000000
Au      -8.35290995       6.26468246       2.08822749
Au      -6.26468246       4.17645498       2.08822749
Au      -6.26468246       6.26468246       0.00000000
Au      -8.35290995       4.17645498       4.17645498
Au      -6.26468246       4.17645498       6.26468246
Au      -6.26468246       6.26468246       4.17645498
Au      -6.26468246       8.35290995      -2.08822749
Au      -8.35290995       8.35290995       0.00000000
Au      -6.26468246       8.35290995       2.08822749
Au      -6.26468246      10.44113744       0.00000000
Au      -4.17645498     -10.44113744      -2.08822749
Au      -2.08822749     -12.52936493      -2.08822749
Au      -2.08822749     -10.44113744      -4.17645498
Au      -4.17645498     -12.52936493       0.00000000
Au      -4.17645498     -10.44113744       2.08822749
Au      -2.08822749     -12.52936493       2.08822749
Au      -2.08822749     -10.44113744       0.00000000
Au      -2.08822749     -10.44113744       4.17645498
Au      -4.17645498      -6.26468246      -6.26468246
Au      -2.08822749      -8.35290995      -6.26468246
Au      -2.08822749      -6.26468246      -8.35290995
Au      -4.17645498      -8.35290995      -4.17645498
Au      -4.17645498      -6.26468246      -2.08822749
Au      -2.08822749      -8.35290995      -2.08822749
Au      -2.08822749      -6.26468246      -4.17645498
Au      -4.17645498      -8.35290995       0.00000000
Au      -4.17645498      -6.26468246       2.08822749
Au      -2.08822749      -8.35290995       2.08822749
Au      -2.08822749      -6.26468246       0.00000000
Au      -4.17645498      -8.35290995       4.17645498
Au      -4.17645498      -6.26468246       6.26468246
Au      -2.08822749      -8.35290995       6.26468246
Au      -2.08822749      -6.26468246       4.17645498
Au      -2.08822749      -6.26468246       8.35290995
Au      -4.17645498      -2.08822749     -10.44113744
Au      -2.08822749      -4.17645498     -10.44113744
Au      -2.08822749      -2.08822749     -12.52936493
Au      -4.17645498      -4.17645498      -8.35290995
Au      -4.17645498      -2.08822749      -6.26468246
Au      -2.08822749      -4.17645498      -6.26468246
Au      -2.08822749      -2.08822749      -8.35290995
Au      -4.17645498      -4.17645498      -4.17645498
Au      -4.17645498      -2.08822749      -2.08822749
Au      -2.08822749      -4.17645498      -2.08822749
Au      -2.08822749      -2.08822749      -4.17645498
Au      -4.17645498      -4.17645498       0.00000000
Au      -4.17645498      -2.08822749       2.08822749
Au      -2.08822749      -4.17645498       2.08822749
Au      -2.08822749      -2.08822749       0.00000000
Au      -4.17645498      -4.17645498       4.17645498
Au      -4.17645498      -2.08822749       6.26468246
Au      -2.08822749      -4.17645498       6.26468246
Au      -2.08822749      -2.08822749       4.17645498
Au      -4.17645498      -4.17645498       8.35290995
Au      -4.17645498      -2.08822749      10.44113744
Au      -2.08822749      -4.17645498      10.44113744
Au      -2.08822749      -2.08822749       8.35290995
Au      -2.08822749      -2.08822749      12.52936493
Au      -4.17645498       0.00000000     -12.52936493
Au      -4.17645498       2.08822749     -10.44113744
Au      -2.08822749       0.00000000     -10.44113744
Au      -2.08822749       2.08822749     -12.52936493
Au      -4.17645498       0.00000000      -8.35290995
Au      -4.17645498       2.08822749      -6.26468246
Au      -2.08822749       0.00000000      -6.26468246
Au      -2.08822749       2.08822749      -8.35290995
Au      -4.17645498       0.00000000      -4.17645498
Au      -4.17645498       2.08822749      -2.08822749
Au      -2.08822749       0.00000000      -2.08822749
Au      -2.08822749       2.08822749      -4.17645498
Au      -4.17645498       0.00000000       0.00000000
Au      -4.17645498       2.08822749       2.08822749
Au      -2.08822749       0.00000000       2.08822749
Au      -2.08822749       2.08822749       0.00000000
Au      -4.17645498       0.00000000       4.17645498
Au      -4.17645498       2.08822749       6.26468246
Au      -2.08822749       0.00000000       6.26468246
Au      -2.08822749       2.08822749       4.17645498
Au      -4.17645498       0.00000000       8.35290995
Au      -4.17645498       2.08822749      10.44113744
Au      -2.08822749       0.00000000      10.44113744
Au      -2.08822749       2.08822749       8.35290995
Au      -4.17645498       0.00000000      12.52936493
Au      -2.08822749       2.08822749      12.52936493
Au      -2.08822749       4.17645498     -10.44113744
Au      -4.17645498       4.17645498      -8.35290995
Au      -4.17645498       6.26468246      -6.26468246
Au      -2.08822749       4.17645498      -6.26468246
Au      -2.08822749       6.26468246      -8.35290995
Au      -4.17645498       4.17645498      -4.17645498
Au      -4.17645498       6.26468246      -2.08822749
Au      -2.08822749       4.17645498      -2.08822749
Au      -2.08822749       6.26468246      -4.17645498
Au      -4.17645498       4.17645498       0.00000000
Au      -4.17645498       6.26468246       2.08822749
Au      -2.08822749       4.17645498       2.08822749
Au      -2.08822749       6.26468246       0.00000000
Au      -4.17645498       4.17645498       4.17645498
Au      -4.17645498       6.26468246       6.26468246
Au      -2.08822749       4.17645498       6.26468246
Au      -2.08822749       6.26468246       4.17645498
Au      -4.17645498       4.17645498       8.35290995
Au      -2.08822749       4.17645498      10.44113744
Au      -2.08822749       6.26468246       8.35290995
Au      -2.08822749       8.35290995      -6.26468246
Au      -4.17645498       8.35290995      -4.17645498
Au      -4.17645498      10.44113744      -2.08822749
Au      -2.08822749       8.35290995      -2.08822749
Au      -2.08822749      10.44113744      -4.17645498
Au      -4.17645498       8.35290995       0.00000000
Au      -4.17645498      10.44113744       2.08822749
Au      -2.08822749       8.35290995       2.08822749
Au      -2.08822749      10.44113744       0.00000000
Au      -4.17645498       8.35290995       4.17645498
Au      -2.08822749       8.35290995       6.26468246
Au      -2.08822749      10.44113744       4.17645498
Au      -2.08822749      12.52936493      -2.08822749
Au      -4.17645498      12.52936493       0.00000000
Au      -2.08822749      12.52936493       2.08822749
Au       0.00000000     -10.44113744      -6.26468246
Au       0.00000000     -12.52936493      -4.17645498
Au       0.00000000     -10.44113744      -2.08822749
Au       2.08822749     -12.52936493      -2.08822749
Au       2.08822749     -10.44113744      -4.17645498
Au       0.00000000     -12.52936493       0.00000000
Au       0.00000000     -10.44113744       2.08822749
Au       2.08822749     -12.52936493       2.08822749
Au       2.08822749     -10.44113744       0.00000000
Au       0.00000000     -12.52936493       4.17645498
Au       0.00000000     -10.44113744       6.26468246
Au       2.08822749     -10.44113744       4.17645498
Au       0.00000000      -6.26468246     -10.44113744
Au       0.00000000      -8.35290995      -8.35290995
Au       0.00000000      -6.26468246      -6.26468246
Au       2.08822749      -8.35290995      -6.26468246
Au       2.08822749      -6.26468246      -8.35290995
Au       0.00000000      -8.35290995      -4.17645498
Au       0.00000000      -6.26468246      -2.08822749
Au       2.08822749      -8.35290995      -2.08822749
Au       2.08822749      -6.26468246      -4.17645498
Au       0.00000000      -8.35290995       0.00000000
Au       0.00000000      -6.26468246       2.08822749
Au       2.08822749      -8.35290995       2.08822749
Au       2.08822749      -6.26468246       0.00000000
Au       0.00000000      -8.35290995       4.17645498
Au       0.00000000      -6.26468246       6.26468246
Au       2.08822749      -8.35290995       6.26468246
Au       2.08822749      -6.26468246       4.17645498
Au       0.00000000      -8.35290995       8.35290995
Au       0.00000000      -6.26468246      10.44113744
Au       2.08822749      -6.26468246       8.35290995
Au       0.00000000      -4.17645498     -12.52936493
Au       0.00000000      -2.08822749     -10.44113744
Au       2.08822749      -4.17645498     -10.44113744
Au       2.08822749      -2.08822749     -12.52936493
Au       0.00000000      -4.17645498      -8.35290995
Au       0.00000000      -2.08822749      -6.26468246
Au       2.08822749      -4.17645498      -6.26468246
Au       2.08822749      -2.08822749      -8.35290995
Au       0.00000000      -4.17645498      -4.17645498
Au       0.00000000      -2.08822749      -2.08822749
Au       2.08822749      -4.17645498      -2.08822749
Au       2.08822749      -2.08822749      -4.17645498
Au       0.00000000      -4.17645498       0.00000000
Au       0.00000000      -2.08822749       2.08822749
Au       2.08822749      -4.17645498       2.08822749
Au       2.08822749      -2.08822749       0.00000000
Au       0.00000000      -4.17645498       4.17645498
Au       0.00000000      -2.08822749       6.26468246
Au       2.08822749      -4.17645498       6.26468246
Au       2.08822749      -2.08822749       4.17645498
Au       0.00000000      -4.17645498       8.35290995
Au       0.00000000      -2.08822749      10.44113744
Au       2.08822749      -4.17645498      10.44113744
Au       2.08822749      -2.08822749       8.35290995
Au       0.00000000      -4.17645498      12.52936493
Au       2.08822749      -2.08822749      12.52936493
Au       0.00000000       0.00000000     -12.52936493
Au       0.00000000       2.08822749     -10.44113744
Au       2.08822749       0.00000000     -10.44113744
Au       2.08822749       2.08822749     -12.52936493
Au       0.00000000       0.00000000      -8.35290995
Au       0.00000000       2.08822749      -6.26468246
Au       2.08822749       0.00000000      -6.26468246
Au       2.08822749       2.08822749      -8.35290995
Au       0.00000000       0.00000000      -4.17645498
Au       0.00000000       2.08822749      -2.08822749
Au       2.08822749       0.00000000      -2.08822749
Au       2.08822749       2.08822749      -4.17645498
Au       0.00000000       0.00000000       0.00000000
Au       0.00000000       2.08822749       2.08822749
Au       2.08822749       0.00000000       2.08822749
Au       2.08822749       2.08822749       0.00000000
Au       0.00000000       0.00000000       4.17645498
Au       0.00000000       2.08822749       6.26468246
Au       2.08822749       0.00000000       6.26468246
Au       2.08822749       2.08822749       4.17645498
Au       0.00000000       0.00000000       8.35290995
Au       0.00000000       2.08822749      10.44113744
Au       2.08822749       0.00000000      10.44113744
Au       2.08822749       2.08822749       8.35290995
Au       0.00000000       0.00000000      12.52936493
Au       2.08822749       2.08822749      12.52936493
Au       0.00000000       4.17645498     -12.52936493
Au       0.00000000       6.26468246     -10.44113744
Au       2.08822749       4.17645498     -10.44113744
Au       0.00000000       4.17645498      -8.35290995
Au       0.00000000       6.26468246      -6.26468246
Au       2.08822749       4.17645498      -6.26468246
Au       2.08822749       6.26468246      -8.35290995
Au       0.00000000       4.17645498      -4.17645498
Au       0.00000000       6.26468246      -2.08822749
Au       2.08822749       4.17645498      -2.08822749
Au       2.08822749       6.26468246      -4.17645498
Au       0.00000000       4.17645498       0.00000000
Au       0.00000000       6.26468246       2.08822749
Au       2.08822749       4.17645498       2.08822749
Au       2.08822749       6.26468246       0.00000000
Au       0.00000000       4.17645498       4.17645498
Au       0.00000000       6.26468246       6.26468246
Au       2.08822749       4.17645498       6.26468246
Au       2.08822749       6.26468246       4.17645498
Au       0.00000000       4.17645498       8.35290995
Au       0.00000000       6.26468246      10.44113744
Au       2.08822749       4.17645498      10.44113744
Au       2.08822749       6.26468246       8.35290995
Au       0.00000000       4.17645498      12.52936493
Au       0.00000000       8.35290995      -8.35290995
Au       0.00000000      10.44113744      -6.26468246
Au       2.08822749       8.35290995      -6.26468246
Au       0.00000000       8.35290995      -4.17645498
Au       0.00000000      10.44113744      -2.08822749
Au       2.08822749       8.35290995      -2.08822749
Au       2.08822749      10.44113744      -4.17645498
Au       0.00000000       8.35290995       0.00000000
Au       0.00000000      10.44113744       2.08822749
Au       2.08822749       8.35290995       2.08822749
Au       2.08822749      10.44113744       0.00000000
Au       0.00000000       8.35290995       4.17645498
Au       0.00000000      10.44113744       6.26468246
Au       2.08822749       8.35290995       6.26468246
Au       2.08822749      10.44113744       4.17645498
Au       0.00000000       8.35290995       8.35290995
Au       0.00000000      12.52936493      -4.17645498
Au       2.08822749      12.52936493      -2.08822749
Au       0.00000000      12.52936493       0.00000000
Au       2.08822749      12.52936493       2.08822749
Au       0.00000000      12.52936493       4.17645498
Au       4.17645498     -10.44113744      -2.08822749
Au       4.17645498     -12.52936493       0.00000000
Au       4.17645498     -10.44113744       2.08822749
Au       6.26468246     -10.44113744       0.00000000
Au       4.17645498      -6.26468246      -6.26468246
Au       4.17645498      -8.35290995      -4.17645498
Au       4.17645498      -6.26468246      -2.08822749
Au       6.26468246      -8.35290995      -2.08822749
Au       6.26468246      -6.26468246      -4.17645498
Au       4.17645498      -8.35290995       0.00000000
Au       4.17645498      -6.26468246       2.08822749
Au       6.26468246      -8.35290995       2.08822749
Au       6.26468246      -6.26468246       0.00000000
Au       4.17645498      -8.35290995       4.17645498
Au       4.17645498      -6.26468246       6.26468246
Au       6.26468246      -6.26468246       4.17645498
Au       4.17645498      -2.08822749     -10.44113744
Au       4.17645498      -4.17645498      -8.35290995
Au       4.17645498      -2.08822749      -6.26468246
Au       6.26468246      -4.17645498      -6.26468246
Au       6.26468246      -2.08822749      -8.35290995
Au       4.17645498      -4.17645498      -4.17645498
Au       4.17645498      -2.08822749      -2.08822749
Au       6.26468246      -4.17645498      -2.08822749
Au       6.26468246      -2.08822749      -4.17645498
Au       4.17645498      -4.17645498       0.00000000
Au       4.17645498      -2.08822749       2.08822749
Au       6.26468246      -4.17645498       2.08822749
Au       6.26468246      -2.08822749       0.00000000
Au       4.17645498      -4.17645498       4.17645498
Au       4.17645498      -2.08822749       6.26468246
Au       6.26468246      -4.17645498       6.26468246
Au       6.26468246      -2.08822749       4.17645498
Au       4.17645498      -4.17645498       8.35290995
Au       4.17645498      -2.08822749      10.44113744
Au       6.26468246      -2.08822749       8.35290995
Au       4.17645498       0.00000000     -12.52936493
Au       4.17645498       2.08822749     -10.44113744
Au       6.26468246       0.00000000     -10.44113744
Au       4.17645498       0.00000000      -8.35290995
Au       4.17645498       2.08822749      -6.26468246
Au       6.26468246       0.00000000      -6.26468246
Au       6.26468246       2.08822749      -8.35290995
Au       4.17645498       0.00000000      -4.17645498
Au       4.17645498       2.08822749      -2.08822749
Au       6.26468246       0.00000000      -2.08822749
Au       6.26468246       2.08822749      -4.17645498
Au       4.17645498       0.00000000       0.00000000
Au       4.17645498       2.08822749       2.08822749
Au       6.26468246       0.00000000       2.08822749
Au       6.26468246       2.08822749       0.00000000
Au       4.17645498       0.00000000       4.17645498
Au       4.17645498       2.08822749       6.26468246
Au       6.26468246       0.00000000       6.26468246
Au       6.26468246       2.08822749       4.17645498
Au       4.17645498       0.00000000       8.35290995
Au       4.17645498       2.08822749      10.44113744
Au       6.26468246       0.00000000      10.44113744
Au       6.26468246       2.08822749       8.35290995
Au       4.17645498       0.00000000      12.52936493
Au       4.17645498       4.17645498      -8.35290995
Au       4.17645498       6.26468246      -6.26468246
Au       6.26468246       4.17645498      -6.26468246
Au       4.17645498       4.17645498      -4.17645498
Au       4.17645498       6.26468246      -2.08822749
Au       6.26468246       4.17645498      -2.08822749
Au       6.26468246       6.26468246      -4.17645498
Au       4.17645498       4.17645498       0.00000000
Au       4.17645498       6.26468246       2.08822749
Au       6.26468246       4.17645498       2.08822749
Au       6.26468246       6.26468246       0.00000000
Au       4.17645498       4.17645498       4.17645498
Au       4.17645498       6.26468246       6.26468246
Au       6.26468246       4.17645498       6.26468246
Au       6.26468246       6.26468246       4.17645498
Au       4.17645498       4.17645498       8.35290995
Au       4.17645498       8.35290995      -4.17645498
Au       4.17645498      10.44113744      -2.08822749
Au       6.26468246       8.35290995      -2.08822749
Au       4.17645498       8.35290995       0.00000000
Au       4.17645498      10.44113744       2.08822749
Au       6.26468246       8.35290995       2.08822749
Au       6.26468246      10.44113744       0.00000000
Au       4.17645498       8.35290995       4.17645498
Au       4.17645498      12.52936493       0.00000000
Au       8.35290995      -6.26468246      -2.08822749
Au       8.35290995      -8.35290995       0.00000000
Au       8.35290995      -6.26468246       2.08822749
Au      10.44113744      -6.26468246       0.00000000
Au       8.35290995      -2.08822749      -6.26468246
Au       8.35290995      -4.17645498      -4.17645498
Au       8.35290995      -2.08822749      -2.08822749
Au      10.44113744      -4.17645498      -2.08822749
Au      10.44113744      -2.08822749      -4.17645498
Au       8.35290995      -4.17645498       0.00000000
Au       8.35290995      -2.08822749       2.08822749
Au      10.44113744      -4.17645498       2.08822749
Au      10.44113744      -2.08822749       0.00000000
Au       8.35290995      -4.17645498       4.17645498
Au       8.35290995      -2.08822749       6.26468246
Au      10.44113744      -2.08822749       4.17645498
Au       8.35290995       0.00000000      -8.35290995
Au       8.35290995       2.08822749      -6.26468246
Au      10.44113744       0.00000000      -6.26468246
Au       8.35290995       0.00000000      -4.17645498
Au       8.35290995       2.08822749      -2.08822749
Au      10.44113744       0.00000000      -2.08822749
Au      10.44113744       2.08822749      -4.17645498
Au       8.35290995       0.00000000       0.00000000
Au       8.35290995       2.08822749       2.08822749
Au      10.44113744       0.00000000       2.08822749
Au      10.44113744       2.08822749       0.00000000
Au       8.35290995       0.00000000       4.17645498
Au       8.35290995       2.08822749       6.26468246
Au      10.44113744       0.00000000       6.26468246
Au      10.44113744       2.08822749       4.17645498
Au       8.35290995       0.00000000       8.35290995
Au       8.35290995       4.17645498      -4.17645498
Au       8.35290995       6.26468246      -2.08822749
Au      10.44113744       4.17645498      -2.08822749
Au       8.35290995       4.17645498       0.00000000
Au       8.35290995       6.26468246       2.08822749
Au      10.44113744       4.17645498       2.08822749
Au      10.44113744       6.26468246       0.00000000
Au       8.35290995       4.17645498       4.17645498
Au       8.35290995       8.35290995       0.00000000
Au      12.52936493      -2.08822749      -2.08822749
Au      12.52936493      -4.17645498       0.00000000
Au      12.52936493      -2.08822749       2.08822749
Au      12.52936493       0.00000000      -4.17645498
Au      12.52936493       2.08822749      -2.08822749
Au      12.52936493       0.00000000       0.00000000
Au      12.52936493       2.08822749       2.08822749
Au      12.52936493       0.00000000       4.17645498
Au      12.52936493       4.17645498       0.00000000
