Co
 1.0000000000000000
     2.4783652431740628    0.0000000000000000    0.0000000000000002
    -1.2391826215870323    2.1463272604450210   -0.0000000000000136
    -0.0000000000000126   -0.0000000000006014   60.7409339225082334
 Co 
  25
Cartesian
  1.2391826215870321  0.7154424201483144  0.9860269592626888
 -1.2391826215870341  2.1463272604449726  3.0339256250159505
 -0.0000000000000003  1.4308848402966134  5.0662125255740742
  1.2391826215870319  0.7154424201482545  7.0932108577806199
 -1.2391826215870325  2.1463272604449153  9.1160230787606018
  0.0000000000000003  1.4308848402965542 11.1404321719249015
  1.2391826215870339  0.7154424201481939 13.1643402853174152
 -1.2391826215870323  2.1463272604448562 15.1883755662569886
 -0.0000000000000006  1.4308848402964949 17.2125175218672730
  1.2391826215870305  0.7154424201481345 19.2365557069659836
 -1.2391826215870336  2.1463272604447967 21.2605119469382124
 -0.0000000000000006  1.4308848402964340 23.2845531550718405
  1.2391826215870321  0.7154424201480749 25.3087224677116431
 -1.2391826215870314  2.1463272604447350 27.3328917803514564
  0.0000000000000001  1.4308848402963741 29.3569329884850880
  1.2391826215870339  0.7154424201480141 31.3808892284573382
 -1.2391826215870334  2.1463272604446733 33.4049274135560594
  0.0000000000000003  1.4308848402963141 35.4290693691662426
  1.2391826215870339  0.7154424201479539 37.4531046501058995
 -1.2391826215870330  2.1463272604446173 39.4770127634983936
 -0.0000000000000002  1.4308848402962540 41.5014218566626454
  1.2391826215870325  0.7154424201478949 43.5242340776427028
 -1.2391826215870305  2.1463272604445569 45.5512324098491845
  0.0000000000000022  1.4308848402961956 47.5835193104072047
  1.2391826215870354  0.7154424201478388 49.6314179761605629
