Au
 1.0000000000000000
     2.9310828142997583   -0.0000000000000000    0.0000000000000002
    -0.0000000000000002    2.9310828143040450    0.0000000000006499
    -0.0000000000000669    0.0000000000244895   92.6100288463036208
 Au 
  38
Cartesian
  0.0000000000001194  0.0000000000212800 89.6276620402139628
  1.4655414071499668  1.4655414071737742 91.7434245828128212
  0.0000000000001234  0.0000000000196703 85.4037905902044230
  1.4655414071500164  1.4655414071722592 87.5209397553761477
  0.0000000000000942  0.0000000000197326 81.1731421658966781
  1.4655414071499884  1.4655414071716133 83.2882086226401839
  0.0000000000001064  0.0000000000204384 76.9429470799392732
  1.4655414071499646  1.4655414071721293 79.0580051383581690
  0.0000000000001065  2.9310828143237950 72.7127634666205296
  1.4655414071499993  1.4655414071723287 74.8278178854156977
  0.0000000000001366  0.0000000000184759 68.4825236434368918
  1.4655414071499819  1.4655414071711379 70.5976285016585052
  0.0000000000001136  2.9310828143213894 64.2523259451115791
  1.4655414071500241  1.4655414071698920 66.3674619670913160
  0.0000000000000934  0.0000000000162437 60.0221172914984251
  1.4655414071499608  1.4655414071688595 62.1373631468307721
  2.9310828142998604  0.0000000000150712 55.7920712681349258
  1.4655414071499859  1.4655414071676658 57.9069530757852391
  0.0000000000001603  0.0000000000139515 51.5616786755115157
  1.4655414071500195  1.4655414071664972 53.6769904680103807
  0.0000000000001131  0.0000000000128505 47.3317160677366360
  1.4655414071499981  1.4655414071654755 49.4465978753870417
  0.0000000000000941  0.0000000000117530 43.1013059966908401
  1.4655414071500190  1.4655414071643085 45.2165518520233647
  0.0000000000000974  0.0000000000106506 38.8712071764304170
  1.4655414071499506  1.4655414071632120 40.9863431984106228
  0.0000000000001201  2.9310828143135965 34.6410406418640164
  1.4655414071499899  1.4655414071621489 36.7561455000849335
  0.0000000000001196  0.0000000000082413 30.4108512581059713
  1.4655414071499944  1.4655414071609034 32.5259056769018571
  0.0000000000001308  0.0000000000083495 26.1806640051635142
  1.4655414071499959  1.4655414071600510 28.2957220635824171
  0.0000000000001328  0.0000000000088482 21.9504605208819719
  1.4655414071500121  1.4655414071607569 24.0655269776252574
  0.0000000000001066  0.0000000000081865 17.7177293881466689
  1.4655414071500110  1.4655414071607586 19.8348785533182443
  0.0000000000000962  2.9310828143109342 13.4952445607105354
  1.4655414071499768  1.4655414071592758 15.6110071033088680
