Cu
 1.0000000000000000
     2.5558671222535234    0.0000000000000000    0.0000000000000002
     1.2779335611267610    2.2134458565692596   -0.0000000000001793
    -0.0000000000000549   -0.0000000000043929   61.0765949176576868
 Cu 
  24
Cartesian
  3.8338006833804044  2.2134458565640380 59.9285888195192342
  1.2779335611268781  0.7378152855180514 57.8313261369478298
  2.5558671222536482  1.4756305710414415 55.7413704544480240
  3.8338006833804017  2.2134458565649138 53.6407820559236157
  1.2779335611268661  0.7378152855190896 51.5420523468178828
  2.5558671222536251  1.4756305710424411 49.4436366551704154
  3.8338006833803964  2.2134458565657074 47.3451410664219665
  1.2779335611268825  0.7378152855196891 45.2467037883829803
  2.5558671222536486  1.4756305710429241 43.1482126374080082
  3.8338006833804026  2.2134458565661608 41.0497486115879724
  1.2779335611268805  0.7378152855201319 38.9511949964104716
  2.5558671222536371  1.4756305710433630 36.8527905764316515
  3.8338006833804084  2.2134458565666004 34.7542517408258078
  1.2779335611268807  0.7378152855205853 32.6558473208472009
  2.5558671222536433  1.4756305710438200 30.5572937056696112
  3.8338006833804141  2.2134458565670552 28.4588296798496394
  1.2779335611268914  0.7378152855210349 26.3603385288747738
  2.5558671222536558  1.4756305710442850 24.2619012508355532
  3.8338006833804186  2.2134458565675499 22.1634056620871114
  1.2779335611268989  0.7378152855216469 20.0649899704398678
  2.5558671222536598  1.4756305710451076 17.9662602613339679
  3.8338006833804124  2.2134458565686290 15.8656718628096147
  1.2779335611268832  0.7378152855227899 13.7757161803099475
  2.5558671222536398  1.4756305710460598 11.6784534977384169
