Cu
 1.0000000000000000
     2.5595501255013167    0.0000000000000000    0.0000000000000002
    -0.0000000000000003    3.6212000084225440   -0.0000000000005212
    -0.0000000000000333   -0.0000000000141513   87.4131474671393249
 Cu 
  60
Cartesian
  1.9196625941263072 -0.0000000000069952  1.9585389211108093
  0.6398875313756688  1.8106000042039818  0.7816439108232990
  1.9196625941263037 -0.0000000000057495  4.5489002016792375
  0.6398875313756326  1.8106000042051893  3.2752454182357011
  1.9196625941263448  3.6212000084174565  7.1164232351470069
  0.6398875313756790  1.8106000042064005  5.8311327549535799
  1.9196625941262881  3.6212000084179965  9.6836104046801523
  0.6398875313756601  1.8106000042074617  8.3997252516543170
  1.9196625941263015 -0.0000000000037988 12.2507341187518044
  0.6398875313756189  1.8106000042087262 10.9671010116106444
  1.9196625941263241 -0.0000000000033893 14.8179390796254662
  0.6398875313756740  1.8106000042095005 13.5342070957290712
  1.9196625941263001  3.6212000084192235 17.3851090270751207
  0.6398875313756477  1.8106000042094867 16.1015044789009529
  1.9196625941262924 -0.0000000000033827 19.9523398407510903
  0.6398875313756421  1.8106000042091546 18.6687242415077606
  1.9196625941262873 -0.0000000000035239 22.5194145817645932
  0.6398875313756205  1.8106000042086523 21.2359942820165664
  1.9196625941263290  3.6212000084188403 25.0868259562507987
  0.6398875313756539  1.8106000042079464 23.8031574937245800
  1.9196625941263141  3.6212000084186102 27.6539919077192344
  0.6398875313756688  1.8106000042072379 26.3703012231404124
  1.9196625941263408 -0.0000000000043690 30.2211511647863986
  0.6398875313756655  1.8106000042066983 28.9376299839090798
  1.9196625941263288 -0.0000000000049397 32.7883884337218277
  0.6398875313756800  1.8106000042062889 31.5047494869319813
  1.9196625941263243 -0.0000000000054847 35.3555940328120784
  0.6398875313756608  1.8106000042059811 34.0720002570075025
  1.9196625941263230 -0.0000000000059698 37.9228096844745721
  0.6398875313756696  1.8106000042057080 36.6391924390469796
  1.9196625941263123 -0.0000000000064745 40.4900553260668445
  0.6398875313756625  1.8106000042054198 39.2064380806388968
  1.9196625941262802 -0.0000000000070400 43.0572475081078210
  0.6398875313756357  1.8106000042051003 41.7736537323023072
  1.9196625941263310  3.6212000084149043 45.6244982781840136
  0.6398875313756440  1.8106000042047987 44.3408593313942987
  1.9196625941263026 -0.0000000000081815 48.1916177812072704
  0.6398875313756701  1.8106000042045673 46.9080966003301754
  1.9196625941263543 -0.0000000000086626 50.7589465419745807
  0.6398875313756630  1.8106000042043155 49.4752558573960073
  1.9196625941263497 -0.0000000000090876 53.3260902713888640
  0.6398875313756847  1.8106000042038728 52.0424218088627768
  1.9196625941263594  3.6212000084131750 55.8932534830954779
  0.6398875313757119  1.8106000042032688 54.6098331833481652
  1.9196625941263403  3.6212000084130551 58.4605235236047633
  0.6398875313756804  1.8106000042027115 57.1769079243612808
  1.9196625941263119 -0.0000000000094981 61.0277432862139264
  0.6398875313756697  1.8106000042023254 59.7441387380382949
  1.9196625941263130 -0.0000000000092816 63.5950406693871102
  0.6398875313756451  1.8106000042021773 62.3113086854901468
  1.9196625941262908 -0.0000000000085028 66.1621467535064198
  0.6398875313756521  1.8106000042024979 64.8785136463649366
  1.9196625941263046 -0.0000000000072744 68.7295225134606795
  0.6398875313756376  1.8106000042032500 67.4456373604361374
  1.9196625941263115 -0.0000000000059715 71.2981150101612542
  0.6398875313756468  1.8106000042037573 70.0128245299667924
  1.9196625941263217 -0.0000000000046477 73.8540023468743527
  0.6398875313756629  1.8106000042041457 72.5803475634336195
  1.9196625941263614  3.6212000084185152 76.3476038542884510
  0.6398875313756819  1.8106000042054287 75.1707088440003162
