Fe8
1.0
   4.0356620246448012    0.0000000000000000    0.0000000000000002
   2.0178310123223997    3.4949858344305396    0.0000000000000002
   0.0000000000000000    0.0000000000000000   18.1230733469628973
Fe
8
direct
  -0.2499999999999999   -0.2499999999999999    0.0681818181818182 Fe
   0.4166666666666666    0.4166666666666667    0.0227272727272727 Fe
  -0.5833333333333331   -0.5833333333333331    0.1590909090909091 Fe
   0.0833333333333334    0.0833333333333335    0.1136363636363636 Fe
  -0.9166666666666665   -0.9166666666666665    0.2500000000000000 Fe
  -0.2499999999999999   -0.2499999999999999    0.2045454545454546 Fe
  -1.2499999999999998   -1.2499999999999998    0.3409090909090909 Fe
  -0.5833333333333329   -0.5833333333333329    0.2954545454545454 Fe
