Zr66
1.0
   5.5621135865529112    0.0000000000000000    0.0000000000000003
   2.7810567932764552    5.5011406831411982    0.0000000000000004
   0.0000000000000000    0.0000000000000000   61.4291451143638909
Zr
66
direct
   0.5523155230778922    0.2287022871775488    0.0062500000000000 Zr
  -0.0097200974329899    0.6861068615326466    0.0187500000000000 Zr
   0.0949109487227946    0.1435114358877441    0.0312500000000000 Zr
  -0.4671246717880878    0.6009160102428417    0.0437500000000000 Zr
  -0.3624936256323033    0.0583205845979393    0.0562500000000000 Zr
  -0.9245292461431853    0.5157251589530371    0.0687500000000000 Zr
  -0.8198981999874010   -0.0268702666918655    0.0812500000000000 Zr
  -1.3819338204982832    0.4305343076632323    0.0937500000000000 Zr
  -1.2773027743424987   -0.1120611179816702    0.1062500000000000 Zr
  -1.8393383948533810    0.3453434563734274    0.1187500000000000 Zr
  -1.7347073486975966   -0.1972519692714750    0.1312500000000000 Zr
  -2.2967429692084789    0.2601526050836227    0.1437500000000000 Zr
  -2.1921119230526940   -0.2824428205612797    0.1562500000000000 Zr
  -2.7541475435635769    0.1749617537938178    0.1687500000000000 Zr
  -2.6495164974077920   -0.3676336718510845    0.1812500000000000 Zr
  -3.2115521179186737    0.0897709025040132    0.1937500000000000 Zr
  -3.1069210717628901   -0.4528245231408893    0.2062500000000000 Zr
  -3.6689566922737726    0.0045800512142083    0.2187500000000000 Zr
  -3.5643256461179877   -0.5380153744306941    0.2312500000000000 Zr
  -4.1263612666288694   -0.0806108000755964    0.2437500000000000 Zr
  -4.0217302204730849   -0.6232062257204988    0.2562500000000000 Zr
  -4.5837658409839666   -0.1658016513654010    0.2687499999999999 Zr
  -4.4791347948281830   -0.7083970770103036    0.2812500000000000 Zr
  -5.0411704153390646   -0.2509925026552058    0.2937500000000000 Zr
  -4.9365393691832793   -0.7935879283001080    0.3062499999999999 Zr
  -5.4985749896941627   -0.3361833539450106    0.3187500000000000 Zr
  -5.3939439435383791   -0.8787787795899132    0.3312500000000000 Zr
  -5.9559795640492608   -0.4213742052348154    0.3437499999999999 Zr
  -5.8513485178934754   -0.9639696308797177    0.3562499999999999 Zr
  -6.4133841384043579   -0.5065650565246200    0.3687499999999999 Zr
  -6.3087530922485735   -1.0491604821695224    0.3812499999999999 Zr
  -6.8707887127594551   -0.5917559078144248    0.3937499999999999 Zr
  -6.7661576666036707   -1.1343513334593271    0.4062499999999999 Zr
  -7.3281932871145532   -0.6769467591042296    0.4187500000000000 Zr
  -7.2235622409587688   -1.2195421847491321    0.4312499999999999 Zr
  -7.7855978614696513   -0.7621376103940344    0.4437499999999999 Zr
  -7.6809668153138668   -1.3047330360389369    0.4562499999999999 Zr
  -8.2430024358247493   -0.8473284616838392    0.4687499999999999 Zr
  -8.1383713896689649   -1.3899238873287416    0.4812500000000000 Zr
  -8.7004070101798465   -0.9325193129736438    0.4937499999999999 Zr
  -8.5957759640240621   -1.4751147386185464    0.5062500000000000 Zr
  -9.1578115845349455   -1.0177101642634487    0.5187499999999999 Zr
  -9.0531805383791610   -1.5603055899083513    0.5312500000000000 Zr
  -9.6152161588900444   -1.1029010155532537    0.5437500000000001 Zr
  -9.5105851127342582   -1.6454964411981561    0.5562500000000000 Zr
 -10.0726207332451416   -1.1880918668430587    0.5687500000000001 Zr
  -9.9679896870893554   -1.7306872924879604    0.5812499999999998 Zr
 -10.5300253076002388   -1.2732827181328630    0.5937499999999999 Zr
 -10.4253942614444526   -1.8158781437777654    0.6062499999999998 Zr
 -10.9874298819553360   -1.3584735694226677    0.6187499999999999 Zr
 -10.8827988357995533   -1.9010689950675705    0.6312500000000000 Zr
 -11.4448344563104367   -1.4436644207124729    0.6437500000000000 Zr
 -11.3402034101546505   -1.9862598463573753    0.6562500000000000 Zr
 -11.9022390306655339   -1.5288552720022779    0.6687500000000001 Zr
 -11.7976079845097495   -2.0714506976471800    0.6812500000000000 Zr
 -12.3596436050206329   -1.6140461232920826    0.6937500000000001 Zr
 -12.2550125588648449   -2.1566415489369843    0.7062499999999999 Zr
 -12.8170481793757283   -1.6992369745818869    0.7187500000000000 Zr
 -12.7124171332199420   -2.2418324002267891    0.7312500000000000 Zr
 -13.2744527537308254   -1.7844278258716919    0.7437500000000000 Zr
 -13.1698217075750410   -2.3270232515165943    0.7562500000000000 Zr
 -13.7318573280859244   -1.8696186771614967    0.7687500000000000 Zr
 -13.6272262819301382   -2.4122141028063990    0.7812499999999999 Zr
 -14.1892619024410216   -1.9548095284513014    0.7937500000000000 Zr
 -14.0846308562852371   -2.4974049540962038    0.8062499999999999 Zr
 -14.6466664767961205   -2.0400003797411062    0.8187500000000000 Zr
