Zr
 1.0000000000000000
     5.0703027148037672   -0.0012266054914368    0.0008551754285998
     2.5363552789279233    5.3697005213739404   -0.2252615148771574
    -0.0400517229154050   -2.3828548916001666   69.1294393440236519
 Zr 
  66
Cartesian
  3.7901498344982785  1.7172657088471526  0.7264658907265015
  1.2552932806336885  3.8146711534351576  1.3092125821020915
  1.2544895900090494  0.8580584849811049  2.1872211760458069
 -1.2799121033386496  3.3615732378250809  3.1147701095820062
 -1.2808163156725263  0.3758044534487170  3.9069938699780224
 -3.8150688642681287  2.8143146588631565  4.7716648979445431
 -3.8156704327221185 -0.1246841720594442  5.7517899757675224
 -6.3504918121753562  2.2851915697477976  6.4854070925285727
 -6.3507508184115178 -0.6596090769628480  7.4809126779765620
 -8.8857634815308142  1.7585398981910618  8.2204288553436733
 -8.8860457363214973 -1.1893390605768395  9.2118056663036967
 -11.4210482579304724  1.2284097950164765  9.9680799281229504
 -11.4214265202516803 -1.7233734837660182 10.9464227435385890
 -13.9564165326786753  0.6973366055208190 11.7070017865090694
 -13.9571052187758902 -2.2549547129080287 12.6865932076242274
 -16.4920917813161658  0.1644947024363582 13.4435839805496826
 -16.4930268600208088 -2.7868223468993061 14.4264177621990139
 -19.0279511082074499 -0.3674911713480742 15.1820520591530119
 -19.0288561767146547 -3.3189773775397029 16.1649199050310841
 -21.5636707199475381 -0.8997251727726210 16.9210108302424018
 -21.5645982890423902 -3.8515663942544220 17.9035413963907857
 -24.0991888746464475 -1.4324458765359762 18.6598958721827870
 -24.1003051143318423 -4.3841063356824597 19.6424188598577878
 -26.6349292352497571 -1.9650589384815254 20.3986552368739424
 -26.6358709339320328 -4.9169391439709891 21.3811622213859920
 -29.1706304994943082 -2.4978149483274565 22.1372776291814795
 -29.1713520750999393 -5.4496013711675921 23.1198103748593518
 -31.7060569289136787 -3.0306292580299314 23.8761092707840703
 -31.7065839568937164 -5.9825249087002090 24.8583740023945055
 -34.2413982860448769 -3.5631343222172940 25.6147213172493338
 -34.2419254894770475 -6.5147361837236382 26.5971729406274413
 -36.7766996840251323 -4.0955272191043344 27.3534011312296954
 -36.7775906024952448 -7.0471016164788223 28.3358162246195491
 -39.3121734517443073 -4.6275937728183658 29.0919338437211259
 -39.3130643702135316 -7.5791681701921183 30.0743489371114272
 -41.8478385647629665 -5.1599592055678576 30.8305771277277287
 -41.8483657681959897 -8.1115610670763338 31.8130287511170948
 -44.3831800973523229 -5.6921704805777189 32.5693760660073366
 -44.3837071253426316 -8.6440661312516447 33.5516407975997524
 -46.9184119791557563 -6.2250940180798535 34.3079396935598169
 -46.9191335547620554 -9.1768804409747791 35.2904724391320386
 -49.4538931203244658 -6.7577562453283804 36.0465878468737984
 -49.4548348189796840 -9.7096364509536581 37.0290948310815082
 -51.9894589398935736 -7.2905890535321740 37.7853312084217663
 -51.9905751795906426 -10.2422495127071933 38.7678541965791226
 -54.5251657651676922 -7.8231289944794460 39.5242086736709837
 -54.5260933342764389 -10.7749702169231156 40.5067392379682047
 -57.0609078775499654 -8.3557180118023950 41.2628301611813839
 -57.0618129460277146 -11.3072042197104317 42.2456980017060033
 -59.5967371942074493 -8.8878730414386240 43.0013323067564031
 -59.5976722729404358 -11.8391900946354092 43.9841660927052018
 -62.1326588353923270 -9.4197406728542656 44.7411568846662604
 -62.1333475212578321 -12.3720319945119872 45.7207482809603363
 -64.6683375340974322 -9.9513218850915681 46.4813273412071482
 -64.6687157968999458 -12.9031051929604761 47.4596700925688637
 -67.2037183181080309 -10.4853563255525692 48.2159443516990365
 -67.2040005726670131 -13.4332354153172115 49.2073209436607826
 -69.7390132347127576 -11.0150863085792814 49.9468374114477314
 -69.7392722401395844 -13.9598870037121721 50.9423433212062093
 -72.2740936227017130 -11.5500106380446486 51.6759615184268029
 -72.2746951909552990 -14.4890102434457653 52.6560858234802467
 -74.8089477406535508 -12.0504997968034893 53.5207551018568211
 -74.8098519497169718 -15.0362702448508578 54.3129745514687414
 -77.3442536356122474 -12.5327529429291058 55.2405271243978504
 -77.3450573357170867 -15.4893669756658117 56.1185388440493469
 -79.8799138960966388 -13.3919602553293071 56.7012889778828821
