Ni
 1.0000000000000000
     2.4785386069505009    0.0000000000000000    0.0000000000000002
    -0.0000000000000001    3.4968948062597152   -0.0000000000001762
    -0.0000000000000137   -0.0000000000008860   64.8820765877484433
 Ni 
  42
Cartesian
  0.6196346517374361  3.4968948062609062  1.9034008958338344
  1.8589039552127071  1.7484474031313759  0.7677618998615542
  0.6196346517374350  3.4968948062602978  4.4286955443185967
  1.8589039552126696  1.7484474031308359  3.1778972846575027
  0.6196346517374607  3.4968948062604395  6.9145599155366408
  1.8589039552127009  1.7484474031305139  5.6741650712288205
  0.6196346517374303  3.4968948062605829  9.4021671489640006
  1.8589039552127049  1.7484474031307671  8.1578288591652477
  0.6196346517374474  3.4968948062600109 11.8906531635317645
  1.8589039552126683  1.7484474031305317 10.6464132840054031
  0.6196346517374818 -0.0000000000002425 14.3795924361886254
  1.8589039552127329  1.7484474031298507 13.1350417249322966
  0.6196346517373973  3.4968948062594416 16.8686051636782217
  1.8589039552126820  1.7484474031295854 15.6240972010833872
  0.6196346517374319  3.4968948062595215 19.3576627484404895
  1.8589039552126592  1.7484474031296786 18.1130471172001606
  0.6196346517374420  3.4968948062594896 21.8466277318920703
  1.8589039552126805  1.7484474031296942 20.6020378318090813
  0.6196346517374443  3.4968948062594416 24.3355847217084893
  1.8589039552127091  1.7484474031296011 23.0911510556420367
  0.6196346517374244 -0.0000000000002672 26.8246246373633319
  1.8589039552126629  1.7484474031295416 25.5801295296669196
  0.6196346517374474 -0.0000000000003316 29.3136031113888542
  1.8589039552127007  1.7484474031295125 28.0691694453218190
  0.6196346517374348  3.4968948062592751 31.8027163352224775
  1.8589039552126785  1.7484474031294228 30.5581264351390125
  0.6196346517374444  3.4968948062592400 34.2917070498317429
  1.8589039552126971  1.7484474031293837 33.0470914185913003
  0.6196346517374505  3.4968948062592649 36.7806569659485163
  1.8589039552126945  1.7484474031294099 35.5361490033536782
  0.6196346517374385  3.4968948062591267 39.2697124420993049
  1.8589039552126954  1.7484474031294208 38.0251617308432586
  0.6196346517374222  3.4968948062585143 41.7583408830260367
  1.8589039552126776  1.7484474031290242 40.5141010034997890
  0.6196346517374243  3.4968948062581555 44.2469253078659364
  1.8589039552126638  1.7484474031283921 43.0025870180672314
  0.6196346517374420  3.4968948062583860 46.7305890958024293
  1.8589039552126938  1.7484474031284178 45.4901942514945290
  0.6196346517374357  3.4968948062581560 49.2268568823738946
  1.8589039552126860  1.7484474031285302 47.9760586227126495
  0.6196346517374215  3.4968948062576319 51.6369922671699797
  1.8589039552126763  1.7484474031279318 50.5013532711976509
