Zr
 1.0000000000000000
     3.5549062638348898    0.0000000000000001   -0.0000000000000006
     1.7774531319173166    5.6946570484993364    0.1329243264685847
    -0.0000000000081781    1.3622846099569121   60.3828312184248190
 Zr 
  42
Cartesian
  2.6661796978763932  1.0096552444491622  0.9734553918946197
  0.8887265659589083  3.3931296936618374  1.8570435592368080
  0.8887265659589673 -0.1624277986405834  3.1128542207039565
 -0.8887265659584896  2.1780205878863659  4.1355704067476875
 -0.8887265659583747 -1.3384217601431809  5.3627405385189020
 -2.6661796978758510  0.9531424007906616  6.4931466335316825
 -2.6661796978757701 -2.5172186638900489  7.6001265462428798
 -4.4436328297932386 -0.2439995122197265  8.7804907704809345
 -4.4436328297931471 -3.6925860591575468  9.8710877528169902
 -6.2210859617106209 -1.4303129032638493 11.0677672096275206
 -6.2210859617105312 -4.8731379206722725 12.1472244999979555
 -7.9985390936279712 -2.6147235132098303 13.3497177560712643
 -7.9985390936278575 -6.0552808728975398 14.4257859403236335
 -9.7759922255453340 -3.7986969760706777 15.6305076198663482
 -9.7759922255452363 -7.2383096252586787 16.7051645734123468
 -11.5534453574626639 -4.9821940880008393 17.9108047311223650
 -11.5534453574625502 -8.4213764915582168 18.9846966035052418
 -13.3308984893800471 -6.1654894107314950 20.1908549493161331
 -13.3308984893799600 -9.6043542959301771 21.2643490397515649
 -15.1083516212974338 -7.3485855270450191 22.4706378485745475
 -15.1083516212973361 -10.7874338948337698 23.5438583670870827
 -16.8858047532147779 -8.5316118002475054 24.7502626837372688
 -16.8858047532147140 -11.9704601680294171 25.8234832022347653
 -18.6632578851321966 -9.7146913991506469 27.0297720110615280
 -18.6632578851320261 -13.1535562843476228 28.1032661014797362
 -20.4407110170494555 -10.8976692035495955 29.3094244473532335
 -20.4407110170493880 -14.3368516070834549 30.3833163195600378
 -22.2181641489668138 -12.0807360697915005 31.5889564772197851
 -22.2181641489666717 -15.5203487191163045 32.6636134313067714
 -23.9956172808841295 -13.2637648224580502 33.8683351104480224
 -23.9956172808840158 -16.7043221814742608 34.9444032939733376
 -25.7730704128014168 -14.4459077744871571 36.1468965514145495
 -25.7730704128012071 -17.8887327934054703 37.2263538422450324
 -27.5505235447187040 -15.6264596333733081 38.4230332957721998
 -27.5505235447186223 -19.0750461827817048 39.5136302788751337
 -29.3279766766360375 -16.8018270354022938 40.6939945196505093
 -29.3279766766359344 -20.2721881017097161 41.8009744130045107
 -31.1054298085532359 -17.9806239258443838 42.9313804455505093
 -31.1054298085532110 -21.4970662200777767 44.1585506919738293
 -32.8828829404707150 -19.1566180327116236 45.1812669395457505
 -32.8828829404705445 -22.7121753179652153 46.4370775231818627
 -34.6603360723879064 -20.3287009368805300 47.3206655286057440
