225

Au    -10.036357271803299     -2.056142941289688     -0.000000000000001
Au    -10.036357271803299      0.000000000000001     -2.056142941289685
Au    -10.036357271803308      0.000000000000001      2.056142941289686
Au    -10.036357271803299      2.056142941289689     -0.000000000000001
Au     -6.162581767503932     -6.162581767503927     -0.000000000000000
Au     -8.181119833404164     -2.189238717324675     -2.189238717324675
Au     -6.249710050289017     -4.252180465968435     -2.216938504540992
Au     -6.249710050289019     -2.216938504540991     -4.252180465968435
Au     -8.117407246662175     -4.150838844784938     -0.000000000000000
Au     -8.181119833404175     -2.189238717324676      2.189238717324677
Au     -6.249710050289021     -4.252180465968434      2.216938504540991
Au     -6.117468527707682     -2.102097489515824      0.000000000000002
Au     -6.249710050289025     -2.216938504540990      4.252180465968438
Au     -6.162581767503928      0.000000000000001     -6.162581767503925
Au     -8.117407246662168      0.000000000000002     -4.150838844784936
Au     -8.181119833404161      2.189238717324677     -2.189238717324674
Au     -6.117468527707679      0.000000000000000     -2.102097489515822
Au     -6.249710050289016      2.216938504540993     -4.252180465968436
Au     -8.033840790530038      0.000000000000000      0.000000000000002
Au     -8.181119833404171      2.189238717324680      2.189238717324677
Au     -6.117468527707689      0.000000000000000      2.102097489515829
Au     -6.117468527707678      2.102097489515824      0.000000000000003
Au     -8.117407246662184      0.000000000000003      4.150838844784941
Au     -6.162581767503926      0.000000000000003      6.162581767503920
Au     -6.249710050289014      2.216938504540992      4.252180465968431
Au     -6.249710050289009      4.252180465968432     -2.216938504540986
Au     -8.117407246662170      4.150838844784940      0.000000000000001
Au     -6.249710050289013      4.252180465968440      2.216938504540991
Au     -6.162581767503929      6.162581767503932      0.000000000000003
Au     -2.056142941289691    -10.036357271803293     -0.000000000000003
Au     -4.252180465968435     -6.249710050289012     -2.216938504540989
Au     -2.189238717324675     -8.181119833404153     -2.189238717324672
Au     -2.216938504540992     -6.249710050289011     -4.252180465968435
Au     -4.150838844784943     -8.117407246662170      0.000000000000000
Au     -4.252180465968436     -6.249710050289011      2.216938504540989
Au     -2.189238717324677     -8.181119833404164      2.189238717324674
Au     -2.102097489515824     -6.117468527707674      0.000000000000001
Au     -2.216938504540990     -6.249710050289008      4.252180465968431
Au     -4.252180465968437     -2.216938504540990     -6.249710050289013
Au     -2.216938504540995     -4.252180465968438     -6.249710050289019
Au     -2.189238717324679     -2.189238717324677     -8.181119833404164
Au     -4.286583640894568     -4.286583640894560     -4.286583640894567
Au     -4.146743580102925     -2.115593426427053     -2.115593426427052
Au     -2.115593426427055     -4.146743580102919     -2.115593426427052
Au     -2.115593426427055     -2.115593426427052     -4.146743580102926
Au     -4.141417780660608     -4.141417780660604      0.000000000000001
Au     -4.146743580102929     -2.115593426427052      2.115593426427055
Au     -2.115593426427052     -4.146743580102918      2.115593426427052
Au     -2.078289226975390     -2.078289226975384      0.000000000000000
Au     -4.286583640894567     -4.286583640894559      4.286583640894564
Au     -4.252180465968440     -2.216938504540990      6.249710050289013
Au     -2.216938504540990     -4.252180465968433      6.249710050289018
Au     -2.115593426427054     -2.115593426427050      4.146743580102922
Au     -2.189238717324681     -2.189238717324677      8.181119833404164
Au     -2.056142941289692      0.000000000000000    -10.036357271803293
Au     -4.150838844784940      0.000000000000002     -8.117407246662165
Au     -4.252180465968434      2.216938504540994     -6.249710050289015
Au     -2.102097489515825      0.000000000000003     -6.117468527707678
Au     -2.189238717324679      2.189238717324679     -8.181119833404169
Au     -4.141417780660607      0.000000000000002     -4.141417780660600
Au     -4.146743580102923      2.115593426427055     -2.115593426427051
Au     -2.078289226975388      0.000000000000001     -2.078289226975386
Au     -2.115593426427052      2.115593426427054     -4.146743580102921
Au     -4.111442431368349     -0.000000000000000      0.000000000000002
Au     -4.146743580102921      2.115593426427057      2.115593426427053
Au     -2.078289226975388      0.000000000000001      2.078289226975388
Au     -2.078289226975388      2.078289226975389      0.000000000000001
Au     -4.141417780660603      0.000000000000001      4.141417780660601
Au     -4.252180465968434      2.216938504540993      6.249710050289017
Au     -2.102097489515828      0.000000000000001      6.117468527707679
Au     -2.115593426427052      2.115593426427055      4.146743580102925
Au     -4.150838844784940      0.000000000000002      8.117407246662173
Au     -2.056142941289689     -0.000000000000000     10.036357271803295
Au     -2.189238717324677      2.189238717324677      8.181119833404169
Au     -2.216938504540990      4.252180465968434     -6.249710050289014
Au     -4.286583640894563      4.286583640894566     -4.286583640894563
Au     -4.252180465968435      6.249710050289016     -2.216938504540990
Au     -2.115593426427054      4.146743580102925     -2.115593426427052
Au     -2.216938504540992      6.249710050289019     -4.252180465968435
Au     -4.141417780660606      4.141417780660608      0.000000000000001
Au     -4.252180465968430      6.249710050289018      2.216938504540991
Au     -2.115593426427052      4.146743580102925      2.115593426427053
Au     -2.102097489515827      6.117468527707685      0.000000000000001
Au     -4.286583640894563      4.286583640894567      4.286583640894562
Au     -2.216938504540996      4.252180465968438      6.249710050289019
Au     -2.216938504540994      6.249710050289019      4.252180465968441
Au     -2.189238717324677      8.181119833404162     -2.189238717324673
Au     -4.150838844784938      8.117407246662180      0.000000000000002
Au     -2.189238717324676      8.181119833404168      2.189238717324676
Au     -2.056142941289684     10.036357271803302      0.000000000000002
Au     -0.000000000000003    -10.036357271803295     -2.056142941289692
Au     -0.000000000000001    -10.036357271803293      2.056142941289686
Au      2.056142941289689    -10.036357271803295     -0.000000000000001
Au     -0.000000000000001     -6.162581767503928     -6.162581767503926
Au     -0.000000000000001     -8.117407246662172     -4.150838844784943
Au     -0.000000000000000     -6.117468527707675     -2.102097489515825
Au      2.189238717324675     -8.181119833404162     -2.189238717324679
Au      2.216938504540990     -6.249710050289013     -4.252180465968438
Au     -0.000000000000001     -8.033840790530032     -0.000000000000004
Au     -0.000000000000001     -6.117468527707678      2.102097489515824
Au      2.189238717324675     -8.181119833404153      2.189238717324674
Au      2.102097489515823     -6.117468527707676     -0.000000000000002
Au     -0.000000000000001     -8.117407246662175      4.150838844784938
Au      0.000000000000000     -6.162581767503926      6.162581767503926
Au      2.216938504540989     -6.249710050289010      4.252180465968435
Au     -0.000000000000004     -2.056142941289687    -10.036357271803299
Au     -0.000000000000002     -4.150838844784935     -8.117407246662173
Au     -0.000000000000003     -2.102097489515822     -6.117468527707682
Au      2.216938504540992     -4.252180465968429     -6.249710050289019
Au      2.189238717324676     -2.189238717324674     -8.181119833404171
Au     -0.000000000000001     -4.141417780660601     -4.141417780660604
Au     -0.000000000000000     -2.078289226975383     -2.078289226975389
Au      2.115593426427050     -4.146743580102923     -2.115593426427056
Au      2.115593426427053     -2.115593426427049     -4.146743580102927
Au     -0.000000000000000     -4.111442431368338     -0.000000000000001
Au     -0.000000000000000     -2.078289226975385      2.078289226975387
Au      2.115593426427052     -4.146743580102922      2.115593426427053
Au      2.078289226975389     -2.078289226975385     -0.000000000000002
Au      0.000000000000001     -4.141417780660600      4.141417780660606
Au      0.000000000000001     -2.102097489515823      6.117468527707680
Au      2.216938504540993     -4.252180465968435      6.249710050289016
Au      2.115593426427054     -2.115593426427052      4.146743580102923
Au     -0.000000000000002     -4.150838844784942      8.117407246662173
Au     -0.000000000000000     -2.056142941289688     10.036357271803293
Au      2.189238717324677     -2.189238717324676      8.181119833404161
Au      0.000000000000001      2.056142941289691    -10.036357271803299
Au      2.056142941289687      0.000000000000002    -10.036357271803299
Au     -0.000000000000001      0.000000000000003     -8.033840790530036
Au     -0.000000000000001      2.102097489515827     -6.117468527707683
Au      2.102097489515824      0.000000000000000     -6.117468527707683
Au      2.189238717324676      2.189238717324677     -8.181119833404162
Au     -0.000000000000002      0.000000000000001     -4.111442431368345
Au      0.000000000000001      2.078289226975391     -2.078289226975387
Au      2.078289226975389      0.000000000000002     -2.078289226975392
Au      2.115593426427055      2.115593426427058     -4.146743580102932
Au      0.000000000000001      0.000000000000001     -0.000000000000001
Au     -0.000000000000002      2.078289226975390      2.078289226975389
Au      2.078289226975386      0.000000000000002      2.078289226975388
Au      2.078289226975387      2.078289226975387      0.000000000000000
Au     -0.000000000000000      0.000000000000002      4.111442431368345
Au      0.000000000000001      2.102097489515825      6.117468527707679
Au      2.102097489515824      0.000000000000001      6.117468527707679
Au      2.115593426427053      2.115593426427055      4.146743580102924
Au     -0.000000000000001      0.000000000000003      8.033840790530041
Au      0.000000000000000      2.056142941289689     10.036357271803302
Au      2.056142941289687     -0.000000000000001     10.036357271803293
Au      2.189238717324679      2.189238717324680      8.181119833404169
Au      0.000000000000000      4.150838844784942     -8.117407246662175
Au     -0.000000000000003      6.162581767503927     -6.162581767503926
Au      2.216938504540992      4.252180465968443     -6.249710050289017
Au      0.000000000000000      4.141417780660610     -4.141417780660608
Au     -0.000000000000001      6.117468527707683     -2.102097489515825
Au      2.115593426427051      4.146743580102925     -2.115593426427053
Au      2.216938504540989      6.249710050289019     -4.252180465968432
Au     -0.000000000000001      4.111442431368346      0.000000000000002
Au      0.000000000000000      6.117468527707678      2.102097489515826
Au      2.115593426427054      4.146743580102922      2.115593426427054
Au      2.102097489515825      6.117468527707675      0.000000000000000
Au     -0.000000000000001      4.141417780660610      4.141417780660606
Au     -0.000000000000001      6.162581767503927      6.162581767503932
Au      2.216938504540997      4.252180465968438      6.249710050289019
Au      2.216938504540992      6.249710050289015      4.252180465968436
Au      0.000000000000000      4.150838844784935      8.117407246662170
Au     -0.000000000000002      8.117407246662177     -4.150838844784942
Au      0.000000000000000     10.036357271803297     -2.056142941289686
Au      2.189238717324676      8.181119833404164     -2.189238717324674
Au      0.000000000000001      8.033840790530039      0.000000000000001
Au      0.000000000000004     10.036357271803297      2.056142941289690
Au      2.189238717324675      8.181119833404161      2.189238717324674
Au      2.056142941289691     10.036357271803299      0.000000000000002
Au     -0.000000000000000      8.117407246662168      4.150838844784940
Au      4.252180465968432     -6.249710050289016     -2.216938504540993
Au      4.150838844784939     -8.117407246662170     -0.000000000000000
Au      4.252180465968437     -6.249710050289013      2.216938504540991
Au      6.162581767503926     -6.162581767503923     -0.000000000000001
Au      4.252180465968437     -2.216938504540990     -6.249710050289019
Au      4.286583640894562     -4.286583640894557     -4.286583640894567
Au      4.146743580102922     -2.115593426427050     -2.115593426427055
Au      6.249710050289011     -4.252180465968432     -2.216938504540992
Au      6.249710050289019     -2.216938504540992     -4.252180465968439
Au      4.141417780660604     -4.141417780660600     -0.000000000000002
Au      4.146743580102920     -2.115593426427052      2.115593426427050
Au      6.249710050289018     -4.252180465968433      2.216938504540996
Au      6.117468527707679     -2.102097489515824     -0.000000000000002
Au      4.286583640894561     -4.286583640894562      4.286583640894566
Au      4.252180465968437     -2.216938504540989      6.249710050289018
Au      6.249710050289013     -2.216938504540992      4.252180465968442
Au      4.150838844784940      0.000000000000001     -8.117407246662177
Au      4.252180465968434      2.216938504540992     -6.249710050289019
Au      6.162581767503925      0.000000000000000     -6.162581767503934
Au      4.141417780660604      0.000000000000001     -4.141417780660609
Au      4.146743580102919      2.115593426427053     -2.115593426427054
Au      6.117468527707680      0.000000000000000     -2.102097489515826
Au      6.249710050289015      2.216938504540992     -4.252180465968440
Au      4.111442431368346      0.000000000000000     -0.000000000000001
Au      4.146743580102923      2.115593426427052      2.115593426427053
Au      6.117468527707680     -0.000000000000000      2.102097489515823
Au      6.117468527707685      2.102097489515824     -0.000000000000001
Au      4.141417780660603      0.000000000000001      4.141417780660604
Au      4.252180465968434      2.216938504540995      6.249710050289016
Au      6.162581767503929      0.000000000000001      6.162581767503930
Au      6.249710050289012      2.216938504540992      4.252180465968433
Au      4.150838844784937      0.000000000000003      8.117407246662172
Au      4.286583640894563      4.286583640894566     -4.286583640894564
Au      4.252180465968433      6.249710050289015     -2.216938504540990
Au      6.249710050289019      4.252180465968433     -2.216938504540990
Au      4.141417780660606      4.141417780660603     -0.000000000000000
Au      4.252180465968436      6.249710050289015      2.216938504540988
Au      6.249710050289021      4.252180465968435      2.216938504540988
Au      6.162581767503924      6.162581767503925     -0.000000000000001
Au      4.286583640894565      4.286583640894563      4.286583640894557
Au      4.150838844784936      8.117407246662172     -0.000000000000003
Au      8.181119833404169     -2.189238717324679     -2.189238717324677
Au      8.117407246662173     -4.150838844784936     -0.000000000000000
Au      8.181119833404157     -2.189238717324674      2.189238717324677
Au     10.036357271803301     -2.056142941289689      0.000000000000000
Au      8.117407246662165     -0.000000000000000     -4.150838844784943
Au      8.181119833404169      2.189238717324676     -2.189238717324676
Au     10.036357271803293     -0.000000000000001     -2.056142941289694
Au      8.033840790530036     -0.000000000000002      0.000000000000001
Au      8.181119833404169      2.189238717324677      2.189238717324677
Au     10.036357271803299     -0.000000000000005      2.056142941289689
Au     10.036357271803299      2.056142941289682     -0.000000000000003
Au      8.117407246662166      0.000000000000001      4.150838844784937
Au      8.117407246662170      4.150838844784940     -0.000000000000000
