Cu36
1.0
   2.5636948460759443    0.0000000000000000    0.0000000000000002
   1.2818474230379711    2.2202248642530034    0.0000000000000002
   0.0000000000000000    0.0000000000000000   85.8231711308846741
Cu
36
direct
   1.0000000000000047    1.0000000000000049    0.9878048780487808 Cu
   0.3333333333333376    0.3333333333333381    0.9634146341463418 Cu
   0.6666666666666706    0.6666666666666714    0.9390243902439028 Cu
   1.0000000000000044    1.0000000000000042    0.9146341463414636 Cu
   0.3333333333333362    0.3333333333333373    0.8902439024390246 Cu
   0.6666666666666694    0.6666666666666710    0.8658536585365856 Cu
   1.0000000000000031    1.0000000000000040    0.8414634146341466 Cu
   0.3333333333333348    0.3333333333333370    0.8170731707317077 Cu
   0.6666666666666674    0.6666666666666703    0.7926829268292684 Cu
   1.0000000000000022    1.0000000000000038    0.7682926829268296 Cu
   0.3333333333333349    0.3333333333333360    0.7439024390243905 Cu
   0.6666666666666675    0.6666666666666687    0.7195121951219513 Cu
   1.0000000000000020    1.0000000000000033    0.6951219512195125 Cu
   0.3333333333333354    0.3333333333333354    0.6707317073170733 Cu
   0.6666666666666663    0.6666666666666671    0.6463414634146343 Cu
   1.0000000000000013    1.0000000000000029    0.6219512195121953 Cu
   0.3333333333333306    0.3333333333333346    0.5975609756097562 Cu
   0.6666666666666676    0.6666666666666703    0.5731707317073172 Cu
   1.0000000000000002    1.0000000000000036    0.5487804878048782 Cu
   0.3333333333333303    0.3333333333333369    0.5243902439024392 Cu
   0.6666666666666673    0.6666666666666682    0.5000000000000001 Cu
   0.9999999999999990    1.0000000000000018    0.4756097560975610 Cu
   0.3333333333333308    0.3333333333333361    0.4512195121951220 Cu
   0.6666666666666625    0.6666666666666671    0.4268292682926829 Cu
   0.9999999999999961    1.0000000000000022    0.4024390243902439 Cu
   0.3333333333333295    0.3333333333333349    0.3780487804878049 Cu
   0.6666666666666631    0.6666666666666666    0.3536585365853658 Cu
   0.9999999999999967    1.0000000000000020    0.3292682926829268 Cu
   0.3333333333333266    0.3333333333333292    0.3048780487804878 Cu
   0.6666666666666619    0.6666666666666690    0.2804878048780488 Cu
   0.9999999999999991    0.9999999999999999    0.2560975609756097 Cu
   0.3333333333333271    0.3333333333333342    0.2317073170731708 Cu
   0.6666666666666606    0.6666666666666659    0.2073170731707316 Cu
   0.9999999999999957    0.9999999999999977    0.1829268292682925 Cu
   0.3333333333333277    0.3333333333333339    0.1585365853658536 Cu
   0.6666666666666629    0.6666666666666683    0.1341463414634146 Cu
