Fe
 1.0000000000000000
     2.8190132232912344   -0.0000000000000000    0.0000000000000002
     0.0000000000000005    2.8190132232746707   -0.0000000000094580
    -0.0000000000001092   -0.0000000001836861   64.3321146690323928
 Fe 
  36
Cartesian
 -0.0000000000003303  0.0000000000027278  2.2976648520558518
  1.4095066116452908  1.4095066116373345  0.7980592808666398
 -0.0000000000003271 -0.0000000000057526  5.2668976194269899
  1.4095066116452859  1.4095066116380446  3.7992963997024050
 -0.0000000000002918 -0.0000000000230215  8.2004791719196941
  1.4095066116453063  1.4095066116226733  6.7381890260242496
 -0.0000000000002628 -0.0000000000348204 11.1040425450845550
  1.4095066116453439  1.4095066116075843  9.6533877532968990
 -0.0000000000002619 -0.0000000000421126 14.0039960526169143
  1.4095066116453598  1.4095066115986188 12.5543835863460824
 -0.0000000000002839 -0.0000000000490531 16.9019949056240435
  1.4095066116453485  1.4095066115918800 15.4533436536288136
 -0.0000000000003087 -0.0000000000570432 19.7994086972041394
  1.4095066116453203  1.4095066115843917 18.3507940446117175
 -0.0000000000002941 -0.0000000000653713 22.6964647919322182
  1.4095066116453117  1.4095066115761008 21.2479348986078165
 -0.0000000000002622 -0.0000000000733144 25.5933892837886781
  1.4095066116453423  1.4095066115679600 24.1449111698728913
 -0.0000000000002421 -0.0000000000812538 28.4904553775134453
  1.4095066116453663  1.4095066115600710 27.0419772635976230
 -0.0000000000002143 -0.0000000000895280 31.3874316487793763
  1.4095066116453874  1.4095066115520021 29.9389017554543777
 -0.0000000000001869 -0.0000000000977897 34.2845725027767045
  1.4095066116454229  1.4095066115436041 32.8359578501837817
 -0.0000000000002280 -0.0000000001050884 37.1820228937601414
  1.4095066116454200  1.4095066115357382 35.7333716417647551
 -0.0000000000002843 -0.0000000001116150 40.0809829610427713
  1.4095066116453552  1.4095066115290165 38.6313704947721774
 -0.0000000000002455 -0.0000000001205089 42.9819787940914182
  1.4095066116453419  1.4095066115218868 41.5313240023040322
 -0.0000000000002068 -0.0000000001357190 45.8971775213645472
  1.4095066116454018  1.4095066115100559 44.4348873754687617
 -0.0000000000002516 -0.0000000001512617 48.8360701476882184
  1.4095066116453947  1.4095066114926147 47.3684689279627094
 -0.0000000000002843 -0.0000000001506290 51.8373072665246895
  1.4095066116453434  1.4095066114840000 50.3377016953352268
