Fe32
1.0
   4.0356620246448012    0.0000000000000000    0.0000000000000002
   2.0178310123223997    3.4949858344305396    0.0000000000000002
   0.0000000000000000    0.0000000000000000   37.8936988163769612
Fe
32
direct
  -0.2499999999999999   -0.2499999999999999    0.0326086956521739 Fe
   0.4166666666666667    0.4166666666666668    0.0108695652173913 Fe
  -0.5833333333333331   -0.5833333333333331    0.0760869565217391 Fe
   0.0833333333333334    0.0833333333333335    0.0543478260869565 Fe
  -0.9166666666666665   -0.9166666666666665    0.1195652173913043 Fe
  -0.2499999999999998   -0.2499999999999997    0.0978260869565217 Fe
  -1.2499999999999998   -1.2499999999999998    0.1630434782608695 Fe
  -0.5833333333333329   -0.5833333333333329    0.1413043478260869 Fe
  -1.5833333333333328   -1.5833333333333328    0.2065217391304348 Fe
  -0.9166666666666663   -0.9166666666666662    0.1847826086956521 Fe
  -1.9166666666666661   -1.9166666666666661    0.2500000000000000 Fe
  -1.2499999999999993   -1.2499999999999993    0.2282608695652174 Fe
  -2.2499999999999991   -2.2499999999999991    0.2934782608695651 Fe
  -1.5833333333333326   -1.5833333333333324    0.2717391304347825 Fe
  -2.5833333333333326   -2.5833333333333326    0.3369565217391304 Fe
  -1.9166666666666659   -1.9166666666666659    0.3152173913043478 Fe
  -2.9166666666666656   -2.9166666666666656    0.3804347826086956 Fe
  -2.2499999999999996   -2.2499999999999991    0.3586956521739130 Fe
  -3.2499999999999991   -3.2499999999999991    0.4239130434782608 Fe
  -2.5833333333333330   -2.5833333333333330    0.4021739130434783 Fe
  -3.5833333333333321   -3.5833333333333321    0.4673913043478260 Fe
  -2.9166666666666656   -2.9166666666666656    0.4456521739130434 Fe
  -3.9166666666666661   -3.9166666666666661    0.5108695652173912 Fe
  -3.2499999999999991   -3.2499999999999991    0.4891304347826086 Fe
  -4.2499999999999991   -4.2499999999999991    0.5543478260869564 Fe
  -3.5833333333333326   -3.5833333333333326    0.5326086956521739 Fe
  -4.5833333333333321   -4.5833333333333321    0.5978260869565217 Fe
  -3.9166666666666652   -3.9166666666666652    0.5760869565217390 Fe
  -4.9166666666666661   -4.9166666666666661    0.6413043478260869 Fe
  -4.2499999999999991   -4.2499999999999991    0.6195652173913043 Fe
  -5.2499999999999982   -5.2499999999999982    0.6847826086956521 Fe
  -4.5833333333333321   -4.5833333333333321    0.6630434782608695 Fe
