Cu6
1.0
   2.5636948460759443    0.0000000000000000    0.0000000000000002
   0.0000000000000004    2.5636948460759443    0.0000000000000002
   0.0000000000000000    0.0000000000000000   21.7536721266396285
Cu
6
direct
   0.0000000000000006    1.0000000000000004    0.8750000000000000 Cu
   0.5000000000000007    0.5000000000000002    0.9583333333333334 Cu
   0.0000000000000005    1.0000000000000004    0.7083333333333334 Cu
   0.5000000000000007    0.5000000000000001    0.7916666666666666 Cu
   0.0000000000000004    1.0000000000000002    0.5416666666666667 Cu
   0.5000000000000006    0.5000000000000000    0.6250000000000000 Cu
