Fe
 1.0000000000000000
     2.4784862753552885   -0.0109759943936221    0.0000000000000003
    -0.8365103585405603    2.3330806050454171    0.0000000000000002
     0.0000000000000016   -0.0000000000000161   60.3760219096731134
 Fe 
  25
Cartesian
  1.6497371168814192  0.5750381554657364  0.7927651212931840
 -0.0077612000664887  1.7470664551852315  2.8502212949899470
  1.6497371168811152  0.5750381554654074  4.9276854230889482
 -0.0077612000661234  1.7470664551854247  6.9603859468167775
  1.6497371168812676  0.5750381554657248  8.9807368315515337
 -0.0077612000662920  1.7470664551851873 11.0029417642112914
  1.6497371168809618  0.5750381554653511 13.0251788781229187
 -0.0077612000661693  1.7470664551853092 15.0471061453813864
  1.6497371168813300  0.5750381554657549 17.0690027549002465
 -0.0077612000662660  1.7470664551851878 19.0909550518692051
  1.6497371168811641  0.5750381554655021 21.1128353681223508
 -0.0077612000661647  1.7470664551853454 23.1347705419676579
  1.6497371168811663  0.5750381554654977 25.1566757956928058
 -0.0077612000663623  1.7470664551851811 27.1785810494204618
  1.6497371168813353  0.5750381554657727 29.2005162232701316
 -0.0077612000663110  1.7470664551852861 31.2223965395243965
  1.6497371168812560  0.5750381554657479 33.2443488364872408
 -0.0077612000663542  1.7470664551851713 35.2662454459991750
  1.6497371168811574  0.5750381554656138 37.2881727132573744
 -0.0077612000663742  1.7470664551851354 39.3104098271777929
  1.6497371168812647  0.5750381554656401 41.3326147598446241
 -0.0077612000662576  1.7470664551854118 43.3529656445782052
  1.6497371168813850  0.5750381554657134 45.3856661682997355
 -0.0077612000665229  1.7470664551852655 47.4631302963953203
  1.6497371168811914  0.5750381554656941 49.5205864700910325
