96
Properties=species:S:1:pos:R:3 pbc="F F F"
Zr      -1.60564389      -4.63509466      -6.57700261
Zr      -3.21128778      -3.70807572      -3.94620157
Zr      -1.60564389      -4.63509466      -1.31540052
Zr      -3.21128778      -3.70807572       1.31540052
Zr      -1.60564389      -4.63509466       3.94620157
Zr      -3.21128778      -3.70807572       6.57700261
Zr      -3.21128778      -1.85403786     -11.83860470
Zr      -3.21128778      -1.85403786      -6.57700261
Zr      -4.81693166      -0.92701893      -3.94620157
Zr      -3.21128778      -1.85403786      -1.31540052
Zr      -4.81693166      -0.92701893       1.31540052
Zr      -3.21128778      -1.85403786       3.94620157
Zr      -4.81693166      -0.92701893       6.57700261
Zr      -3.21128778      -1.85403786       9.20780365
Zr      -4.81693166       0.92701893      -6.57700261
Zr      -4.81693166       0.92701893      -1.31540052
Zr      -4.81693166       0.92701893       3.94620157
Zr       0.00000000      -3.70807572      -9.20780365
Zr       1.60564389      -4.63509466      -6.57700261
Zr       0.00000000      -3.70807572      -3.94620157
Zr       1.60564389      -4.63509466      -1.31540052
Zr       0.00000000      -3.70807572       1.31540052
Zr       1.60564389      -4.63509466       3.94620157
Zr       0.00000000      -3.70807572       6.57700261
Zr       0.00000000      -3.70807572      11.83860470
Zr       0.00000000      -1.85403786     -11.83860470
Zr      -1.60564389      -0.92701893      -9.20780365
Zr       0.00000000      -1.85403786      -6.57700261
Zr      -1.60564389      -0.92701893      -3.94620157
Zr       0.00000000      -1.85403786      -1.31540052
Zr      -1.60564389      -0.92701893       1.31540052
Zr       0.00000000      -1.85403786       3.94620157
Zr      -1.60564389      -0.92701893       6.57700261
Zr       0.00000000      -1.85403786       9.20780365
Zr      -1.60564389      -0.92701893      11.83860470
Zr      -1.60564389       0.92701893     -11.83860470
Zr      -3.21128778       1.85403786      -9.20780365
Zr      -1.60564389       0.92701893      -6.57700261
Zr      -3.21128778       1.85403786      -3.94620157
Zr      -1.60564389       0.92701893      -1.31540052
Zr      -3.21128778       1.85403786       1.31540052
Zr      -1.60564389       0.92701893       3.94620157
Zr      -3.21128778       1.85403786       6.57700261
Zr      -1.60564389       0.92701893       9.20780365
Zr      -3.21128778       1.85403786      11.83860470
Zr      -3.21128778       3.70807572      -6.57700261
Zr      -3.21128778       3.70807572      -1.31540052
Zr      -3.21128778       3.70807572       3.94620157
Zr       3.21128778      -3.70807572      -3.94620157
Zr       3.21128778      -3.70807572       1.31540052
Zr       3.21128778      -3.70807572       6.57700261
Zr       3.21128778      -1.85403786     -11.83860470
Zr       1.60564389      -0.92701893      -9.20780365
Zr       3.21128778      -1.85403786      -6.57700261
Zr       1.60564389      -0.92701893      -3.94620157
Zr       3.21128778      -1.85403786      -1.31540052
Zr       1.60564389      -0.92701893       1.31540052
Zr       3.21128778      -1.85403786       3.94620157
Zr       1.60564389      -0.92701893       6.57700261
Zr       3.21128778      -1.85403786       9.20780365
Zr       1.60564389      -0.92701893      11.83860470
Zr       1.60564389       0.92701893     -11.83860470
Zr       0.00000000       1.85403786      -9.20780365
Zr       1.60564389       0.92701893      -6.57700261
Zr       0.00000000       1.85403786      -3.94620157
Zr       1.60564389       0.92701893      -1.31540052
Zr       0.00000000       1.85403786       1.31540052
Zr       1.60564389       0.92701893       3.94620157
Zr       0.00000000       1.85403786       6.57700261
Zr       1.60564389       0.92701893       9.20780365
Zr       0.00000000       1.85403786      11.83860470
Zr       0.00000000       3.70807572     -11.83860470
Zr       0.00000000       3.70807572      -6.57700261
Zr      -1.60564389       4.63509466      -3.94620157
Zr       0.00000000       3.70807572      -1.31540052
Zr      -1.60564389       4.63509466       1.31540052
Zr       0.00000000       3.70807572       3.94620157
Zr      -1.60564389       4.63509466       6.57700261
Zr       0.00000000       3.70807572       9.20780365
Zr       4.81693166      -0.92701893      -3.94620157
Zr       4.81693166      -0.92701893       1.31540052
Zr       4.81693166      -0.92701893       6.57700261
Zr       3.21128778       1.85403786      -9.20780365
Zr       4.81693166       0.92701893      -6.57700261
Zr       3.21128778       1.85403786      -3.94620157
Zr       4.81693166       0.92701893      -1.31540052
Zr       3.21128778       1.85403786       1.31540052
Zr       4.81693166       0.92701893       3.94620157
Zr       3.21128778       1.85403786       6.57700261
Zr       3.21128778       1.85403786      11.83860470
Zr       3.21128778       3.70807572      -6.57700261
Zr       1.60564389       4.63509466      -3.94620157
Zr       3.21128778       3.70807572      -1.31540052
Zr       1.60564389       4.63509466       1.31540052
Zr       3.21128778       3.70807572       3.94620157
Zr       1.60564389       4.63509466       6.57700261
