225
Properties=species:S:1:pos:R:3 pbc="F F F"
Cu      -9.06403005      -1.81280601       0.00000000
Cu      -9.06403005       0.00000000      -1.81280601
Cu      -9.06403005       0.00000000       1.81280601
Cu      -9.06403005       1.81280601       0.00000000
Cu      -5.43841803      -5.43841803       0.00000000
Cu      -7.25122404      -1.81280601      -1.81280601
Cu      -5.43841803      -3.62561202      -1.81280601
Cu      -5.43841803      -1.81280601      -3.62561202
Cu      -7.25122404      -3.62561202       0.00000000
Cu      -7.25122404      -1.81280601       1.81280601
Cu      -5.43841803      -3.62561202       1.81280601
Cu      -5.43841803      -1.81280601       0.00000000
Cu      -5.43841803      -1.81280601       3.62561202
Cu      -5.43841803       0.00000000      -5.43841803
Cu      -7.25122404       0.00000000      -3.62561202
Cu      -7.25122404       1.81280601      -1.81280601
Cu      -5.43841803       0.00000000      -1.81280601
Cu      -5.43841803       1.81280601      -3.62561202
Cu      -7.25122404       0.00000000       0.00000000
Cu      -7.25122404       1.81280601       1.81280601
Cu      -5.43841803       0.00000000       1.81280601
Cu      -5.43841803       1.81280601       0.00000000
Cu      -7.25122404       0.00000000       3.62561202
Cu      -5.43841803       0.00000000       5.43841803
Cu      -5.43841803       1.81280601       3.62561202
Cu      -5.43841803       3.62561202      -1.81280601
Cu      -7.25122404       3.62561202       0.00000000
Cu      -5.43841803       3.62561202       1.81280601
Cu      -5.43841803       5.43841803       0.00000000
Cu      -1.81280601      -9.06403005       0.00000000
Cu      -3.62561202      -5.43841803      -1.81280601
Cu      -1.81280601      -7.25122404      -1.81280601
Cu      -1.81280601      -5.43841803      -3.62561202
Cu      -3.62561202      -7.25122404       0.00000000
Cu      -3.62561202      -5.43841803       1.81280601
Cu      -1.81280601      -7.25122404       1.81280601
Cu      -1.81280601      -5.43841803       0.00000000
Cu      -1.81280601      -5.43841803       3.62561202
Cu      -3.62561202      -1.81280601      -5.43841803
Cu      -1.81280601      -3.62561202      -5.43841803
Cu      -1.81280601      -1.81280601      -7.25122404
Cu      -3.62561202      -3.62561202      -3.62561202
Cu      -3.62561202      -1.81280601      -1.81280601
Cu      -1.81280601      -3.62561202      -1.81280601
Cu      -1.81280601      -1.81280601      -3.62561202
Cu      -3.62561202      -3.62561202       0.00000000
Cu      -3.62561202      -1.81280601       1.81280601
Cu      -1.81280601      -3.62561202       1.81280601
Cu      -1.81280601      -1.81280601       0.00000000
Cu      -3.62561202      -3.62561202       3.62561202
Cu      -3.62561202      -1.81280601       5.43841803
Cu      -1.81280601      -3.62561202       5.43841803
Cu      -1.81280601      -1.81280601       3.62561202
Cu      -1.81280601      -1.81280601       7.25122404
Cu      -1.81280601       0.00000000      -9.06403005
Cu      -3.62561202       0.00000000      -7.25122404
Cu      -3.62561202       1.81280601      -5.43841803
Cu      -1.81280601       0.00000000      -5.43841803
Cu      -1.81280601       1.81280601      -7.25122404
Cu      -3.62561202       0.00000000      -3.62561202
Cu      -3.62561202       1.81280601      -1.81280601
Cu      -1.81280601       0.00000000      -1.81280601
Cu      -1.81280601       1.81280601      -3.62561202
Cu      -3.62561202       0.00000000       0.00000000
Cu      -3.62561202       1.81280601       1.81280601
Cu      -1.81280601       0.00000000       1.81280601
Cu      -1.81280601       1.81280601       0.00000000
Cu      -3.62561202       0.00000000       3.62561202
Cu      -3.62561202       1.81280601       5.43841803
Cu      -1.81280601       0.00000000       5.43841803
Cu      -1.81280601       1.81280601       3.62561202
Cu      -3.62561202       0.00000000       7.25122404
Cu      -1.81280601       0.00000000       9.06403005
Cu      -1.81280601       1.81280601       7.25122404
Cu      -1.81280601       3.62561202      -5.43841803
Cu      -3.62561202       3.62561202      -3.62561202
Cu      -3.62561202       5.43841803      -1.81280601
Cu      -1.81280601       3.62561202      -1.81280601
Cu      -1.81280601       5.43841803      -3.62561202
Cu      -3.62561202       3.62561202       0.00000000
Cu      -3.62561202       5.43841803       1.81280601
Cu      -1.81280601       3.62561202       1.81280601
Cu      -1.81280601       5.43841803       0.00000000
Cu      -3.62561202       3.62561202       3.62561202
Cu      -1.81280601       3.62561202       5.43841803
Cu      -1.81280601       5.43841803       3.62561202
Cu      -1.81280601       7.25122404      -1.81280601
Cu      -3.62561202       7.25122404       0.00000000
Cu      -1.81280601       7.25122404       1.81280601
Cu      -1.81280601       9.06403005       0.00000000
Cu       0.00000000      -9.06403005      -1.81280601
Cu       0.00000000      -9.06403005       1.81280601
Cu       1.81280601      -9.06403005       0.00000000
Cu       0.00000000      -5.43841803      -5.43841803
Cu       0.00000000      -7.25122404      -3.62561202
Cu       0.00000000      -5.43841803      -1.81280601
Cu       1.81280601      -7.25122404      -1.81280601
Cu       1.81280601      -5.43841803      -3.62561202
Cu       0.00000000      -7.25122404       0.00000000
Cu       0.00000000      -5.43841803       1.81280601
Cu       1.81280601      -7.25122404       1.81280601
Cu       1.81280601      -5.43841803       0.00000000
Cu       0.00000000      -7.25122404       3.62561202
Cu       0.00000000      -5.43841803       5.43841803
Cu       1.81280601      -5.43841803       3.62561202
Cu       0.00000000      -1.81280601      -9.06403005
Cu       0.00000000      -3.62561202      -7.25122404
Cu       0.00000000      -1.81280601      -5.43841803
Cu       1.81280601      -3.62561202      -5.43841803
Cu       1.81280601      -1.81280601      -7.25122404
Cu       0.00000000      -3.62561202      -3.62561202
Cu       0.00000000      -1.81280601      -1.81280601
Cu       1.81280601      -3.62561202      -1.81280601
Cu       1.81280601      -1.81280601      -3.62561202
Cu       0.00000000      -3.62561202       0.00000000
Cu       0.00000000      -1.81280601       1.81280601
Cu       1.81280601      -3.62561202       1.81280601
Cu       1.81280601      -1.81280601       0.00000000
Cu       0.00000000      -3.62561202       3.62561202
Cu       0.00000000      -1.81280601       5.43841803
Cu       1.81280601      -3.62561202       5.43841803
Cu       1.81280601      -1.81280601       3.62561202
Cu       0.00000000      -3.62561202       7.25122404
Cu       0.00000000      -1.81280601       9.06403005
Cu       1.81280601      -1.81280601       7.25122404
Cu       0.00000000       1.81280601      -9.06403005
Cu       1.81280601       0.00000000      -9.06403005
Cu       0.00000000       0.00000000      -7.25122404
Cu       0.00000000       1.81280601      -5.43841803
Cu       1.81280601       0.00000000      -5.43841803
Cu       1.81280601       1.81280601      -7.25122404
Cu       0.00000000       0.00000000      -3.62561202
Cu       0.00000000       1.81280601      -1.81280601
Cu       1.81280601       0.00000000      -1.81280601
Cu       1.81280601       1.81280601      -3.62561202
Cu       0.00000000       0.00000000       0.00000000
Cu       0.00000000       1.81280601       1.81280601
Cu       1.81280601       0.00000000       1.81280601
Cu       1.81280601       1.81280601       0.00000000
Cu       0.00000000       0.00000000       3.62561202
Cu       0.00000000       1.81280601       5.43841803
Cu       1.81280601       0.00000000       5.43841803
Cu       1.81280601       1.81280601       3.62561202
Cu       0.00000000       0.00000000       7.25122404
Cu       0.00000000       1.81280601       9.06403005
Cu       1.81280601       0.00000000       9.06403005
Cu       1.81280601       1.81280601       7.25122404
Cu       0.00000000       3.62561202      -7.25122404
Cu       0.00000000       5.43841803      -5.43841803
Cu       1.81280601       3.62561202      -5.43841803
Cu       0.00000000       3.62561202      -3.62561202
Cu       0.00000000       5.43841803      -1.81280601
Cu       1.81280601       3.62561202      -1.81280601
Cu       1.81280601       5.43841803      -3.62561202
Cu       0.00000000       3.62561202       0.00000000
Cu       0.00000000       5.43841803       1.81280601
Cu       1.81280601       3.62561202       1.81280601
Cu       1.81280601       5.43841803       0.00000000
Cu       0.00000000       3.62561202       3.62561202
Cu       0.00000000       5.43841803       5.43841803
Cu       1.81280601       3.62561202       5.43841803
Cu       1.81280601       5.43841803       3.62561202
Cu       0.00000000       3.62561202       7.25122404
Cu       0.00000000       7.25122404      -3.62561202
Cu       0.00000000       9.06403005      -1.81280601
Cu       1.81280601       7.25122404      -1.81280601
Cu       0.00000000       7.25122404       0.00000000
Cu       0.00000000       9.06403005       1.81280601
Cu       1.81280601       7.25122404       1.81280601
Cu       1.81280601       9.06403005       0.00000000
Cu       0.00000000       7.25122404       3.62561202
Cu       3.62561202      -5.43841803      -1.81280601
Cu       3.62561202      -7.25122404       0.00000000
Cu       3.62561202      -5.43841803       1.81280601
Cu       5.43841803      -5.43841803       0.00000000
Cu       3.62561202      -1.81280601      -5.43841803
Cu       3.62561202      -3.62561202      -3.62561202
Cu       3.62561202      -1.81280601      -1.81280601
Cu       5.43841803      -3.62561202      -1.81280601
Cu       5.43841803      -1.81280601      -3.62561202
Cu       3.62561202      -3.62561202       0.00000000
Cu       3.62561202      -1.81280601       1.81280601
Cu       5.43841803      -3.62561202       1.81280601
Cu       5.43841803      -1.81280601       0.00000000
Cu       3.62561202      -3.62561202       3.62561202
Cu       3.62561202      -1.81280601       5.43841803
Cu       5.43841803      -1.81280601       3.62561202
Cu       3.62561202       0.00000000      -7.25122404
Cu       3.62561202       1.81280601      -5.43841803
Cu       5.43841803       0.00000000      -5.43841803
Cu       3.62561202       0.00000000      -3.62561202
Cu       3.62561202       1.81280601      -1.81280601
Cu       5.43841803       0.00000000      -1.81280601
Cu       5.43841803       1.81280601      -3.62561202
Cu       3.62561202       0.00000000       0.00000000
Cu       3.62561202       1.81280601       1.81280601
Cu       5.43841803       0.00000000       1.81280601
Cu       5.43841803       1.81280601       0.00000000
Cu       3.62561202       0.00000000       3.62561202
Cu       3.62561202       1.81280601       5.43841803
Cu       5.43841803       0.00000000       5.43841803
Cu       5.43841803       1.81280601       3.62561202
Cu       3.62561202       0.00000000       7.25122404
Cu       3.62561202       3.62561202      -3.62561202
Cu       3.62561202       5.43841803      -1.81280601
Cu       5.43841803       3.62561202      -1.81280601
Cu       3.62561202       3.62561202       0.00000000
Cu       3.62561202       5.43841803       1.81280601
Cu       5.43841803       3.62561202       1.81280601
Cu       5.43841803       5.43841803       0.00000000
Cu       3.62561202       3.62561202       3.62561202
Cu       3.62561202       7.25122404       0.00000000
Cu       7.25122404      -1.81280601      -1.81280601
Cu       7.25122404      -3.62561202       0.00000000
Cu       7.25122404      -1.81280601       1.81280601
Cu       9.06403005      -1.81280601       0.00000000
Cu       7.25122404       0.00000000      -3.62561202
Cu       7.25122404       1.81280601      -1.81280601
Cu       9.06403005       0.00000000      -1.81280601
Cu       7.25122404       0.00000000       0.00000000
Cu       7.25122404       1.81280601       1.81280601
Cu       9.06403005       0.00000000       1.81280601
Cu       9.06403005       1.81280601       0.00000000
Cu       7.25122404       0.00000000       3.62561202
Cu       7.25122404       3.62561202       0.00000000
