Ni
 1.0000000000000000
     2.4776165462696498   -0.0000000000000004    0.0000000000000002
    -1.2388082731347088    2.1456788699054008    0.0000000000001490
     0.0000000000009042    0.0000000000046448   61.0270097590746303
 Ni 
  25
Cartesian
  1.2388082731345964  0.7152262899681421  1.0859540915334622
 -1.2388082731349115  2.1456788699052649  3.0909200879974077
 -0.0000000000000930  1.4304525799370091  5.1364118449814660
  1.2388082731347450  0.7152262899688344  7.1604596070271498
 -1.2388082731347820  2.1456788699059697  9.1890204313831170
  0.0000000000000336  1.4304525799376628 11.2186250282483488
  1.2388082731348602  0.7152262899693550 13.2483226730267116
 -1.2388082731346739  2.1456788699064338 15.2782467835568347
  0.0000000000001339  1.4304525799381207 17.3081611602011840
  1.2388082731349574  0.7152262899698149 19.3381530971623157
 -1.2388082731345713  2.1456788699068912 21.3679873357676264
  0.0000000000002327  1.4304525799385783 23.3980264731528251
  1.2388082731350567  0.7152262899702840 25.4279207329514847
 -1.2388082731344796  2.1456788699073677 27.4578149927503361
  0.0000000000003267  1.4304525799390613 29.4878541301355099
  1.2388082731351624  0.7152262899707609 31.5176883687408278
  0.0000000000003367  0.0000000000024457 33.5476803057019808
  0.0000000000004293  1.4304525799395129 35.5775946823464650
  1.2388082731352399  0.7152262899712080 37.6075187928763981
 -1.2388082731343018  2.1456788699082798 39.6372164376549776
  0.0000000000005141  1.4304525799399666 41.6668210345202752
  1.2388082731353305  0.7152262899717146 43.6953818588762175
  1.2388082731354553  2.1456788699089340 45.7194296209220639
  0.0000000000006232  1.4304525799406904 47.7649213779062265
  1.2388082731354446  0.7152262899724413 49.7698873743701284
