Fe
 1.0000000000000000
     2.4965509522151721   -0.0638147959334393   -0.0000000000000003
    -0.8923488173311637    2.3324992118743118    0.0000000000000002
    -0.0000000000000043   -0.0000000000000070   20.1500115677107026
 Fe 
   5
Cartesian
  1.6493260098285951  0.5352637060184605  0.8552030410529115
 -0.0451238749445669  1.7334207099223038  2.9377784359034713
  1.6493260098285860  0.5352637060184660  5.0375028919276259
 -0.0451238749445664  1.7334207099223138  7.1372273479518302
  1.6493260098285953  0.5352637060184620  9.2198027428024005
