Fe36
1.0
   2.8536439842033707    0.0000000000000000    0.0000000000000002
   0.0000000000000005    2.8536439842033707    0.0000000000000002
   0.0000000000000000    0.0000000000000000   62.7801676524741552
Fe
36
direct
   0.0000000000000000    0.0000000000000000    0.0340909090909091 Fe
   0.5000000000000000    0.5000000000000000    0.0113636363636364 Fe
   0.0000000000000001    0.0000000000000001    0.0795454545454545 Fe
   0.5000000000000001    0.5000000000000001    0.0568181818181818 Fe
   0.0000000000000002    0.0000000000000002    0.1250000000000000 Fe
   0.5000000000000001    0.5000000000000001    0.1022727272727273 Fe
   0.0000000000000002    0.0000000000000002    0.1704545454545454 Fe
   0.5000000000000002    0.5000000000000002    0.1477272727272727 Fe
   0.0000000000000003    0.0000000000000003    0.2159090909090909 Fe
   0.5000000000000002    0.5000000000000002    0.1931818181818182 Fe
   0.0000000000000004    0.0000000000000004    0.2613636363636364 Fe
   0.5000000000000003    0.5000000000000003    0.2386363636363636 Fe
   0.0000000000000004    0.0000000000000004    0.3068181818181818 Fe
   0.5000000000000003    0.5000000000000003    0.2840909090909091 Fe
   0.0000000000000005    0.0000000000000005    0.3522727272727273 Fe
   0.5000000000000004    0.5000000000000004    0.3295454545454545 Fe
   0.0000000000000005    0.0000000000000005    0.3977272727272727 Fe
   0.5000000000000006    0.5000000000000006    0.3750000000000000 Fe
   0.0000000000000006    0.0000000000000006    0.4431818181818183 Fe
   0.5000000000000006    0.5000000000000006    0.4204545454545455 Fe
   0.0000000000000007    0.0000000000000007    0.4886363636363636 Fe
   0.5000000000000007    0.5000000000000007    0.4659090909090909 Fe
   0.0000000000000007    0.0000000000000007    0.5340909090909091 Fe
   0.5000000000000007    0.5000000000000007    0.5113636363636364 Fe
   0.0000000000000008    0.0000000000000008    0.5795454545454545 Fe
   0.5000000000000008    0.5000000000000008    0.5568181818181818 Fe
   0.0000000000000008    0.0000000000000008    0.6250000000000000 Fe
   0.5000000000000008    0.5000000000000008    0.6022727272727273 Fe
   0.0000000000000009    0.0000000000000009    0.6704545454545454 Fe
   0.5000000000000009    0.5000000000000009    0.6477272727272727 Fe
   0.0000000000000010    0.0000000000000010    0.7159090909090908 Fe
   0.5000000000000009    0.5000000000000009    0.6931818181818181 Fe
   0.0000000000000010    0.0000000000000010    0.7613636363636364 Fe
   0.5000000000000010    0.5000000000000010    0.7386363636363636 Fe
   0.0000000000000011    0.0000000000000011    0.8068181818181818 Fe
   0.5000000000000011    0.5000000000000011    0.7840909090909092 Fe
