Zr
 1.0000000000000000
     3.0825217767485951    0.0000000000000000   -0.0000000001780748
     0.0000000000000003    5.2487062255340016   -0.0000000000024956
    -0.0000000031259501   -0.0000000000269701   63.8956581471434291
 Zr 
  36
Cartesian
  0.7706304466940406  1.3121765563841694  2.3401146731072848
  0.7706304407437280  3.9365296691497860  0.8360842443208916
 -0.7706304438141007  1.3121765563833612  5.3266195185472895
 -0.7706304447309834  3.9365296691504876  3.5206923233547793
 -2.3118913329863084  1.3121765563819878  8.1861925680953966
 -2.3118913325239907  3.9365296691495475  6.4709846319842397
 -3.8531522216182887  1.3121765563803718 11.0887770794063272
 -3.8531522211692817  3.9365296691481637  9.3586598605328906
 -5.3944131101285429  1.3121765563781016 13.9815903443648324
 -5.3944131097682204  3.9365296691462675 12.2495597781718963
 -6.9356739986376281  1.3121765563761778 16.8756386274908508
 -6.9356739983000333  3.9365296691440039 15.1446560102396042
 -8.4769348871517796  1.3121765563748156 19.7698913385144834
 -8.4769348868160925  3.9365296691423652 18.0382282652707602
 -10.0181957756674382  1.3121765563735763 22.6639877470929818
 -10.0181957753310691  3.9365296691411236 20.9324567195737608
 -11.5594566641829601  1.3121765563723187 25.5575864507622370
 -11.5594566638468716  3.9365296691398846 23.8265091618507157
 -13.1007175526970379  1.3121765563710839 28.4517565963180843
 -13.1007175523631929  3.9365296691386269 26.7206793074071030
 -14.6419784412112541  1.3121765563699006 31.3458090385940480
 -14.6419784408783862  3.9365296691374083 29.6142780110745925
 -16.1832393297302666  1.3121765563686973 34.2400374929031557
 -16.1832393293922472  3.9365296691362275 32.5083744196565263
 -17.7245002182462663  1.3121765563670744 37.1336097479079115
 -17.7245002179154234  3.9365296691348903 35.4026271306752420
 -19.2657611066517340  1.3121765563648293 40.0287059800388505
 -19.2657611064771217  3.9365296691329776 38.2966754137738121
 -20.8070219945454156  1.3121765563629717 42.9196058976585277
 -20.8070219950318887  3.9365296691307270 41.1894886789740440
 -22.3482828819002819  1.3121765563616250 45.8072811252161856
 -22.3482828827026516  3.9365296691291505 44.0920731894414359
 -23.8895437764752252  1.3121765563607464 48.7575734410017247
 -23.8895437657665184  3.9365296691278213 46.9516462402965473
 -25.4308046896559610  1.3121765563614549 51.4421815076460618
 -25.4308046369133223  3.9365296691270282 49.9381510857755657
