Ag136
1.0
   9.6359283910946392    0.0000000000000000    0.0000000000000006
   0.0000000000000008    5.1029417663022487    0.0000000000000003
   0.0000000000000000    0.0000000000000000   60.3967884498884899
Ag
136
direct
   0.0000000000000000   -0.2500000000000001    0.0121951219512195 Ag
   0.5000000000000000   -0.2500000000000001    0.0121951219512195 Ag
   0.7500000000000001    0.0833333333333334    0.0121951219512195 Ag
   0.2500000000000000    0.4166666666666667    0.0121951219512195 Ag
   0.0000000000000000   -0.7500000000000003    0.0365853658536585 Ag
   0.5000000000000000   -0.7500000000000002    0.0365853658536585 Ag
   0.7500000000000001   -0.4166666666666669    0.0365853658536585 Ag
   0.2500000000000000   -0.0833333333333335    0.0365853658536585 Ag
   0.0000000000000001   -1.2500000000000002    0.0609756097560976 Ag
   0.5000000000000001   -1.2500000000000002    0.0609756097560976 Ag
   0.7500000000000001   -0.9166666666666669    0.0609756097560976 Ag
   0.2500000000000000   -0.5833333333333334    0.0609756097560976 Ag
   0.0000000000000001   -1.7500000000000004    0.0853658536585366 Ag
   0.5000000000000001   -1.7500000000000004    0.0853658536585366 Ag
   0.7500000000000002   -1.4166666666666670    0.0853658536585366 Ag
   0.2500000000000001   -1.0833333333333337    0.0853658536585366 Ag
   0.0000000000000001   -2.2500000000000009    0.1097560975609756 Ag
   0.5000000000000001   -2.2500000000000004    0.1097560975609756 Ag
   0.7500000000000002   -1.9166666666666672    0.1097560975609756 Ag
   0.2500000000000001   -1.5833333333333339    0.1097560975609756 Ag
   0.0000000000000001   -2.7500000000000009    0.1341463414634146 Ag
   0.5000000000000001   -2.7500000000000004    0.1341463414634146 Ag
   0.7500000000000002   -2.4166666666666674    0.1341463414634146 Ag
   0.2500000000000001   -2.0833333333333339    0.1341463414634146 Ag
   0.0000000000000002   -3.2500000000000009    0.1585365853658537 Ag
   0.5000000000000002   -3.2500000000000009    0.1585365853658537 Ag
   0.7500000000000002   -2.9166666666666674    0.1585365853658537 Ag
   0.2500000000000001   -2.5833333333333344    0.1585365853658537 Ag
   0.0000000000000002   -3.7500000000000013    0.1829268292682927 Ag
   0.5000000000000002   -3.7500000000000013    0.1829268292682927 Ag
   0.7500000000000003   -3.4166666666666674    0.1829268292682927 Ag
   0.2500000000000002   -3.0833333333333344    0.1829268292682927 Ag
   0.0000000000000002   -4.2500000000000018    0.2073170731707318 Ag
   0.5000000000000002   -4.2500000000000018    0.2073170731707318 Ag
   0.7500000000000003   -3.9166666666666679    0.2073170731707318 Ag
   0.2500000000000002   -3.5833333333333348    0.2073170731707318 Ag
   0.0000000000000002   -4.7500000000000009    0.2317073170731708 Ag
   0.5000000000000002   -4.7500000000000009    0.2317073170731708 Ag
   0.7500000000000003   -4.4166666666666679    0.2317073170731707 Ag
   0.2500000000000002   -4.0833333333333348    0.2317073170731708 Ag
   0.0000000000000003   -5.2500000000000018    0.2560975609756098 Ag
   0.5000000000000002   -5.2500000000000018    0.2560975609756098 Ag
   0.7500000000000003   -4.9166666666666679    0.2560975609756098 Ag
   0.2500000000000002   -4.5833333333333348    0.2560975609756098 Ag
   0.0000000000000003   -5.7500000000000018    0.2804878048780489 Ag
   0.5000000000000003   -5.7500000000000018    0.2804878048780489 Ag
   0.7500000000000004   -5.4166666666666679    0.2804878048780488 Ag
   0.2500000000000002   -5.0833333333333348    0.2804878048780489 Ag
   0.0000000000000003   -6.2500000000000018    0.3048780487804879 Ag
   0.5000000000000003   -6.2500000000000018    0.3048780487804879 Ag
   0.7500000000000004   -5.9166666666666679    0.3048780487804879 Ag
   0.2500000000000003   -5.5833333333333339    0.3048780487804878 Ag
   0.0000000000000004   -6.7500000000000027    0.3292682926829269 Ag
   0.5000000000000003   -6.7500000000000027    0.3292682926829269 Ag
   0.7500000000000004   -6.4166666666666687    0.3292682926829269 Ag
   0.2500000000000003   -6.0833333333333348    0.3292682926829269 Ag
   0.0000000000000004   -7.2500000000000018    0.3536585365853659 Ag
   0.5000000000000003   -7.2500000000000018    0.3536585365853659 Ag
   0.7500000000000004   -6.9166666666666687    0.3536585365853659 Ag
   0.2500000000000003   -6.5833333333333348    0.3536585365853659 Ag
   0.0000000000000004   -7.7500000000000018    0.3780487804878049 Ag
   0.5000000000000004   -7.7500000000000018    0.3780487804878049 Ag
   0.7500000000000006   -7.4166666666666679    0.3780487804878049 Ag
   0.2500000000000003   -7.0833333333333348    0.3780487804878049 Ag
   0.0000000000000004   -8.2500000000000036    0.4024390243902440 Ag
   0.5000000000000004   -8.2500000000000018    0.4024390243902440 Ag
   0.7500000000000006   -7.9166666666666687    0.4024390243902440 Ag
   0.2500000000000004   -7.5833333333333357    0.4024390243902440 Ag
   0.0000000000000005   -8.7500000000000018    0.4268292682926830 Ag
   0.5000000000000004   -8.7500000000000018    0.4268292682926830 Ag
   0.7500000000000006   -8.4166666666666679    0.4268292682926830 Ag
   0.2500000000000004   -8.0833333333333357    0.4268292682926830 Ag
   0.0000000000000005   -9.2500000000000018    0.4512195121951220 Ag
   0.5000000000000004   -9.2500000000000018    0.4512195121951220 Ag
   0.7500000000000006   -8.9166666666666679    0.4512195121951220 Ag
   0.2500000000000004   -8.5833333333333339    0.4512195121951220 Ag
   0.0000000000000005   -9.7500000000000036    0.4756097560975611 Ag
   0.5000000000000006   -9.7500000000000036    0.4756097560975611 Ag
   0.7500000000000006   -9.4166666666666696    0.4756097560975611 Ag
   0.2500000000000004   -9.0833333333333357    0.4756097560975611 Ag
   0.0000000000000005  -10.2500000000000018    0.5000000000000001 Ag
   0.5000000000000006  -10.2500000000000018    0.5000000000000001 Ag
   0.7500000000000007   -9.9166666666666696    0.5000000000000001 Ag
   0.2500000000000005   -9.5833333333333357    0.5000000000000000 Ag
   0.0000000000000006  -10.7500000000000036    0.5243902439024392 Ag
   0.5000000000000006  -10.7500000000000036    0.5243902439024392 Ag
   0.7500000000000007  -10.4166666666666696    0.5243902439024392 Ag
   0.2500000000000005  -10.0833333333333357    0.5243902439024392 Ag
   0.0000000000000006  -11.2500000000000036    0.5487804878048782 Ag
   0.5000000000000006  -11.2500000000000036    0.5487804878048782 Ag
   0.7500000000000007  -10.9166666666666714    0.5487804878048782 Ag
   0.2500000000000006  -10.5833333333333375    0.5487804878048782 Ag
   0.0000000000000006  -11.7500000000000053    0.5731707317073172 Ag
   0.5000000000000006  -11.7500000000000053    0.5731707317073172 Ag
   0.7500000000000007  -11.4166666666666732    0.5731707317073174 Ag
   0.2500000000000006  -11.0833333333333375    0.5731707317073172 Ag
   0.0000000000000006  -12.2500000000000036    0.5975609756097562 Ag
   0.5000000000000007  -12.2500000000000036    0.5975609756097562 Ag
   0.7500000000000008  -11.9166666666666714    0.5975609756097563 Ag
   0.2500000000000006  -11.5833333333333357    0.5975609756097562 Ag
   0.0000000000000007  -12.7500000000000018    0.6219512195121951 Ag
   0.5000000000000007  -12.7500000000000018    0.6219512195121951 Ag
   0.7500000000000008  -12.4166666666666696    0.6219512195121952 Ag
   0.2500000000000006  -12.0833333333333357    0.6219512195121951 Ag
   0.0000000000000007  -13.2500000000000036    0.6463414634146343 Ag
   0.5000000000000007  -13.2500000000000036    0.6463414634146343 Ag
   0.7500000000000008  -12.9166666666666714    0.6463414634146343 Ag
   0.2500000000000006  -12.5833333333333357    0.6463414634146342 Ag
   0.0000000000000007  -13.7500000000000036    0.6707317073170733 Ag
   0.5000000000000007  -13.7500000000000036    0.6707317073170733 Ag
   0.7500000000000008  -13.4166666666666714    0.6707317073170733 Ag
   0.2500000000000007  -13.0833333333333375    0.6707317073170733 Ag
   0.0000000000000007  -14.2500000000000053    0.6951219512195124 Ag
   0.5000000000000008  -14.2500000000000053    0.6951219512195124 Ag
   0.7500000000000009  -13.9166666666666732    0.6951219512195124 Ag
   0.2500000000000007  -13.5833333333333375    0.6951219512195124 Ag
   0.0000000000000008  -14.7500000000000036    0.7195121951219513 Ag
   0.5000000000000008  -14.7500000000000036    0.7195121951219513 Ag
   0.7500000000000009  -14.4166666666666714    0.7195121951219513 Ag
   0.2500000000000007  -14.0833333333333357    0.7195121951219513 Ag
   0.0000000000000008  -15.2500000000000036    0.7439024390243903 Ag
   0.5000000000000008  -15.2500000000000036    0.7439024390243903 Ag
   0.7500000000000009  -14.9166666666666714    0.7439024390243905 Ag
   0.2500000000000007  -14.5833333333333375    0.7439024390243903 Ag
   0.0000000000000008  -15.7500000000000053    0.7682926829268294 Ag
   0.5000000000000008  -15.7500000000000053    0.7682926829268294 Ag
   0.7500000000000009  -15.4166666666666732    0.7682926829268295 Ag
   0.2500000000000008  -15.0833333333333375    0.7682926829268294 Ag
   0.0000000000000008  -16.2500000000000071    0.7926829268292686 Ag
   0.5000000000000009  -16.2500000000000071    0.7926829268292686 Ag
   0.7500000000000009  -15.9166666666666732    0.7926829268292686 Ag
   0.2500000000000008  -15.5833333333333393    0.7926829268292684 Ag
   0.0000000000000009  -16.7500000000000036    0.8170731707317075 Ag
   0.5000000000000009  -16.7500000000000036    0.8170731707317075 Ag
   0.7500000000000010  -16.4166666666666714    0.8170731707317075 Ag
   0.2500000000000008  -16.0833333333333357    0.8170731707317074 Ag
