Ag80
1.0
   2.9461848024335873    0.0000000000000000    0.0000000000000002
   0.0000000000000015    9.6359283910946392    0.0000000000000006
   0.0000000000000000    0.0000000000000000   61.2353011956270024
Ag
80
direct
  -0.2500000000000001    0.0000000000000000    0.0208333333333333 Ag
  -0.2500000000000001    0.5000000000000000    0.0208333333333333 Ag
   0.2499999999999999    0.2500000000000000    0.0347222222222222 Ag
   0.2499999999999999    0.7500000000000002    0.0069444444444444 Ag
  -0.7499999999999999    0.0000000000000001    0.0625000000000000 Ag
  -0.7499999999999999    0.5000000000000000    0.0625000000000000 Ag
  -0.2500000000000001    0.2500000000000001    0.0763888888888889 Ag
  -0.2500000000000000    0.7500000000000002    0.0486111111111111 Ag
  -1.2500000000000000    0.0000000000000001    0.1041666666666667 Ag
  -1.2500000000000000    0.5000000000000001    0.1041666666666667 Ag
  -0.7500000000000000    0.2500000000000001    0.1180555555555555 Ag
  -0.7499999999999999    0.7500000000000003    0.0902777777777778 Ag
  -1.7499999999999998    0.0000000000000001    0.1458333333333333 Ag
  -1.7499999999999998    0.5000000000000001    0.1458333333333333 Ag
  -1.2499999999999998    0.2500000000000001    0.1597222222222222 Ag
  -1.2499999999999998    0.7500000000000003    0.1319444444444444 Ag
  -2.2500000000000000    0.0000000000000002    0.1875000000000000 Ag
  -2.2500000000000000    0.5000000000000001    0.1875000000000000 Ag
  -1.7500000000000000    0.2500000000000002    0.2013888888888889 Ag
  -1.7499999999999996    0.7500000000000003    0.1736111111111110 Ag
  -2.7500000000000000    0.0000000000000002    0.2291666666666667 Ag
  -2.7500000000000000    0.5000000000000002    0.2291666666666667 Ag
  -2.2500000000000000    0.2500000000000002    0.2430555555555555 Ag
  -2.2500000000000000    0.7500000000000004    0.2152777777777778 Ag
  -3.2499999999999996    0.0000000000000002    0.2708333333333333 Ag
  -3.2499999999999996    0.5000000000000002    0.2708333333333333 Ag
  -2.7499999999999996    0.2500000000000002    0.2847222222222222 Ag
  -2.7499999999999996    0.7500000000000004    0.2569444444444444 Ag
  -3.7499999999999996    0.0000000000000003    0.3124999999999999 Ag
  -3.7499999999999996    0.5000000000000002    0.3124999999999999 Ag
  -3.2499999999999996    0.2500000000000003    0.3263888888888888 Ag
  -3.2499999999999996    0.7500000000000004    0.2986111111111110 Ag
  -4.2499999999999991    0.0000000000000003    0.3541666666666666 Ag
  -4.2499999999999991    0.5000000000000003    0.3541666666666666 Ag
  -3.7499999999999987    0.2500000000000003    0.3680555555555554 Ag
  -3.7499999999999991    0.7500000000000006    0.3402777777777777 Ag
  -4.7499999999999991    0.0000000000000003    0.3958333333333333 Ag
  -4.7499999999999991    0.5000000000000003    0.3958333333333333 Ag
  -4.2499999999999991    0.2500000000000003    0.4097222222222222 Ag
  -4.2499999999999991    0.7500000000000006    0.3819444444444444 Ag
  -5.2500000000000000    0.0000000000000004    0.4374999999999999 Ag
  -5.2499999999999991    0.5000000000000003    0.4374999999999999 Ag
  -4.7500000000000000    0.2500000000000004    0.4513888888888888 Ag
  -4.7500000000000000    0.7500000000000006    0.4236111111111110 Ag
  -5.7499999999999991    0.0000000000000004    0.4791666666666666 Ag
  -5.7499999999999991    0.5000000000000004    0.4791666666666666 Ag
  -5.2499999999999991    0.2500000000000004    0.4930555555555555 Ag
  -5.2499999999999991    0.7500000000000007    0.4652777777777776 Ag
  -6.2500000000000000    0.0000000000000004    0.5208333333333333 Ag
  -6.2500000000000000    0.5000000000000004    0.5208333333333333 Ag
  -5.7500000000000000    0.2500000000000004    0.5347222222222222 Ag
  -5.7499999999999991    0.7500000000000007    0.5069444444444443 Ag
  -6.7499999999999991    0.0000000000000005    0.5624999999999999 Ag
  -6.7499999999999991    0.5000000000000004    0.5624999999999999 Ag
  -6.2499999999999991    0.2500000000000005    0.5763888888888887 Ag
  -6.2499999999999991    0.7500000000000007    0.5486111111111109 Ag
  -7.2500000000000000    0.0000000000000005    0.6041666666666666 Ag
  -7.2500000000000000    0.5000000000000006    0.6041666666666666 Ag
  -6.7500000000000000    0.2500000000000005    0.6180555555555555 Ag
  -6.7499999999999991    0.7500000000000007    0.5902777777777777 Ag
  -7.7499999999999991    0.0000000000000005    0.6458333333333333 Ag
  -7.7499999999999991    0.5000000000000006    0.6458333333333333 Ag
  -7.2499999999999991    0.2500000000000006    0.6597222222222221 Ag
  -7.2499999999999991    0.7500000000000008    0.6319444444444443 Ag
  -8.2499999999999982    0.0000000000000006    0.6874999999999999 Ag
  -8.2499999999999982    0.5000000000000006    0.6874999999999999 Ag
  -7.7499999999999982    0.2500000000000006    0.7013888888888887 Ag
  -7.7499999999999982    0.7500000000000008    0.6736111111111109 Ag
  -8.7500000000000000    0.0000000000000006    0.7291666666666666 Ag
  -8.7500000000000000    0.5000000000000007    0.7291666666666666 Ag
  -8.2500000000000000    0.2500000000000006    0.7430555555555556 Ag
  -8.2499999999999982    0.7500000000000008    0.7152777777777777 Ag
  -9.2500000000000000    0.0000000000000007    0.7708333333333333 Ag
  -9.2500000000000000    0.5000000000000007    0.7708333333333333 Ag
  -8.7500000000000000    0.2500000000000007    0.7847222222222222 Ag
  -8.7499999999999982    0.7500000000000009    0.7569444444444443 Ag
  -9.7500000000000000    0.0000000000000007    0.8124999999999999 Ag
  -9.7500000000000000    0.5000000000000007    0.8124999999999999 Ag
  -9.2500000000000000    0.2500000000000007    0.8263888888888888 Ag
  -9.2499999999999982    0.7500000000000009    0.7986111111111109 Ag
