Ag24
1.0
   2.9461848024335877    0.0000000000000000    0.0000000000000002
  -1.4730924012167947    2.5514708831511239    0.0000000000000002
   0.0000000000000000    0.0000000000000000   77.0874271287571133
Ag
24
direct
   0.0000000000000004    0.0000000000000004    0.1093750000000000 Ag
   0.0000000000000002    0.0000000000000002    0.0468750000000000 Ag
   0.3333333333333334    0.6666666666666666    0.0156250000000000 Ag
   0.6666666666666669    0.3333333333333335    0.0781250000000000 Ag
   0.0000000000000008    0.0000000000000008    0.2343750000000000 Ag
   0.0000000000000006    0.0000000000000006    0.1718750000000000 Ag
   0.3333333333333338    0.6666666666666671    0.1406250000000000 Ag
   0.6666666666666673    0.3333333333333339    0.2031250000000000 Ag
   0.0000000000000012    0.0000000000000012    0.3593750000000000 Ag
   0.0000000000000010    0.0000000000000010    0.2968750000000000 Ag
   0.3333333333333341    0.6666666666666675    0.2656250000000000 Ag
   0.6666666666666676    0.3333333333333343    0.3281250000000000 Ag
   0.0000000000000016    0.0000000000000016    0.4843750000000000 Ag
   0.0000000000000014    0.0000000000000014    0.4218750000000001 Ag
   0.3333333333333346    0.6666666666666679    0.3906250000000001 Ag
   0.6666666666666681    0.3333333333333346    0.4531250000000000 Ag
   0.0000000000000020    0.0000000000000020    0.6093750000000000 Ag
   0.0000000000000018    0.0000000000000018    0.5468750000000000 Ag
   0.3333333333333350    0.6666666666666683    0.5156250000000000 Ag
   0.6666666666666685    0.3333333333333350    0.5781250000000000 Ag
   0.0000000000000024    0.0000000000000024    0.7343750000000000 Ag
   0.0000000000000022    0.0000000000000022    0.6718750000000000 Ag
   0.3333333333333354    0.6666666666666686    0.6406250000000000 Ag
   0.6666666666666689    0.3333333333333355    0.7031250000000000 Ag
