83
Properties=species:S:1:pos:R:3 pbc="F F F"
Fe      -4.28030621      -2.01776522       0.00000000
Fe      -4.28030621       0.00000000      -2.01797211
Fe      -4.28030621       0.00000000       2.01797211
Fe      -4.28030621       2.01776522       0.00000000
Fe      -1.42676874      -6.05329566       0.00000000
Fe      -2.85353748      -2.01776522      -2.01797211
Fe      -1.42676874      -4.03553044      -2.01797211
Fe      -1.42676874      -2.01776522      -4.03594422
Fe      -2.85353748      -4.03553044       0.00000000
Fe      -2.85353748      -2.01776522       2.01797211
Fe      -1.42676874      -4.03553044       2.01797211
Fe      -1.42676874      -2.01776522       0.00000000
Fe      -1.42676874      -2.01776522       4.03594422
Fe      -1.42676874       0.00000000      -6.05391634
Fe      -2.85353748       0.00000000      -4.03594422
Fe      -2.85353748       2.01776522      -2.01797211
Fe      -1.42676874       0.00000000      -2.01797211
Fe      -1.42676874       2.01776522      -4.03594422
Fe      -2.85353748       0.00000000       0.00000000
Fe      -2.85353748       2.01776522       2.01797211
Fe      -1.42676874       0.00000000       2.01797211
Fe      -1.42676874       2.01776522       0.00000000
Fe      -2.85353748       0.00000000       4.03594422
Fe      -1.42676874       0.00000000       6.05391634
Fe      -1.42676874       2.01776522       4.03594422
Fe      -1.42676874       4.03553044      -2.01797211
Fe      -2.85353748       4.03553044       0.00000000
Fe      -1.42676874       4.03553044       2.01797211
Fe      -1.42676874       6.05329566       0.00000000
Fe       0.00000000      -6.05329566      -2.01797211
Fe       0.00000000      -8.07106088       0.00000000
Fe       0.00000000      -6.05329566       2.01797211
Fe       1.42676874      -6.05329566       0.00000000
Fe       0.00000000      -2.01776522      -6.05391634
Fe       0.00000000      -4.03553044      -4.03594422
Fe       0.00000000      -2.01776522      -2.01797211
Fe       1.42676874      -4.03553044      -2.01797211
Fe       1.42676874      -2.01776522      -4.03594422
Fe       0.00000000      -4.03553044       0.00000000
Fe       0.00000000      -2.01776522       2.01797211
Fe       1.42676874      -4.03553044       2.01797211
Fe       1.42676874      -2.01776522       0.00000000
Fe       0.00000000      -4.03553044       4.03594422
Fe       0.00000000      -2.01776522       6.05391634
Fe       1.42676874      -2.01776522       4.03594422
Fe       0.00000000       0.00000000      -8.07188845
Fe       0.00000000       2.01776522      -6.05391634
Fe       1.42676874       0.00000000      -6.05391634
Fe       0.00000000       0.00000000      -4.03594422
Fe       0.00000000       2.01776522      -2.01797211
Fe       1.42676874       0.00000000      -2.01797211
Fe       1.42676874       2.01776522      -4.03594422
Fe       0.00000000       0.00000000       0.00000000
Fe       0.00000000       2.01776522       2.01797211
Fe       1.42676874       0.00000000       2.01797211
Fe       1.42676874       2.01776522       0.00000000
Fe       0.00000000       0.00000000       4.03594422
Fe       0.00000000       2.01776522       6.05391634
Fe       1.42676874       0.00000000       6.05391634
Fe       1.42676874       2.01776522       4.03594422
Fe       0.00000000       0.00000000       8.07188845
Fe       0.00000000       4.03553044      -4.03594422
Fe       0.00000000       6.05329566      -2.01797211
Fe       1.42676874       4.03553044      -2.01797211
Fe       0.00000000       4.03553044       0.00000000
Fe       0.00000000       6.05329566       2.01797211
Fe       1.42676874       4.03553044       2.01797211
Fe       1.42676874       6.05329566       0.00000000
Fe       0.00000000       4.03553044       4.03594422
Fe       0.00000000       8.07106088       0.00000000
Fe       2.85353748      -2.01776522      -2.01797211
Fe       2.85353748      -4.03553044       0.00000000
Fe       2.85353748      -2.01776522       2.01797211
Fe       4.28030621      -2.01776522       0.00000000
Fe       2.85353748       0.00000000      -4.03594422
Fe       2.85353748       2.01776522      -2.01797211
Fe       4.28030621       0.00000000      -2.01797211
Fe       2.85353748       0.00000000       0.00000000
Fe       2.85353748       2.01776522       2.01797211
Fe       4.28030621       0.00000000       2.01797211
Fe       4.28030621       2.01776522       0.00000000
Fe       2.85353748       0.00000000       4.03594422
Fe       2.85353748       4.03553044       0.00000000
