Ag
 1.0000000000000000
     5.0946607475337533   -0.0020193218175310   -0.0006134099166118
     2.5434677068558349    9.7178776345123605    0.0018334876151635
    -0.0074055927899680    0.0133293256289302   61.4414895431597046
 Ag 
 140
Cartesian
 -2.2070126907079266 -0.1867741511273430  1.3497070123667005
  0.3272816819331580  4.7439820188866308  0.7013962502132126
  3.7735306911476210  2.3932249455042482  0.4095954383034791
  1.9478089155948062  7.1354976891815936  1.0621467852047504
 -4.7638373536202634 -0.4017507718601847  2.7072324975545774
 -2.2295777229219462  4.5780259462708965  2.0181968567305120
  1.2194150503292198  2.1601604650106947  1.6724732820102886
 -0.5748140407907374  6.9517230054351886  2.3548739971991171
 -7.3282501298272749 -0.6478681848327856  4.2341205538349618
 -4.7790699215170909  4.3402866616964131  3.5310856997009288
 -1.3595666463435028  1.9508149719605978  3.1813319351544243
 -3.0793788123289887  6.7119950801731783  3.8919776850457142
 -9.8742401138663265 -0.8569560042624593  5.7030774522029901
 -7.3279379500453423  4.1106609615716660  4.9928120012012611
 -3.9244879494013780  1.7249155875503226  4.6248807672528764
 -5.6289004155347921  6.4854659659693272  5.3496588236003531
 -12.4216813221944307 -1.0794576929375741  7.1642777064964980
 -9.8752119242058836  3.8884340090537655  6.4430045507080624
 -6.4788923851567652  1.5102311946817111  6.0850452473700765
 -8.1753503802424294  6.2653394754791982  6.8066922680511963
 -14.9687139841781143 -1.2996762666844557  8.6280404170804950
 -12.4231731080213219  3.6694062528593858  7.9058580658134563
 -9.0285237102171276  1.2920012091115651  7.5397679736617302
 -10.7214444745612827  6.0433503504997095  8.2676497107751299
 -17.5159693423246061 -1.5200921091310540 10.0891367789270188
 -14.9703627860304156  3.4488248724512145  9.3634593008883442
 -11.5772169643846539  1.0717584205835589  8.9989530782014686
 -13.2684093852505605  5.8234937323715963  9.7275993490165327
 -20.0629108601790698 -1.7401675084135193 11.5502575185712892
 -17.5175251762929847  3.2288640359165450 10.8237360655634625
 -14.1247199382501254  0.8525211326639557 10.4577294382629180
 -15.8152570858999102  5.6028773810486099 11.1876812324397452
 -22.6098749007160613 -1.9603747253144244 13.0109311898294173
 -20.0644468979768469  3.0087467567182982 12.2831790086174024
 -16.6719370186590830  0.6325032594046740 11.9172742845653516
 -18.3622021921825365  5.3827061441110748 12.6480754713084362
 -25.1567485759031371 -2.1805416542459897 14.4712841071950784
 -22.6114208679476327  2.7884579769351947 13.7431173826542050
 -19.2189652172797949  0.4125575230792341 13.3769840214594762
 -20.9092220283806718  5.1623988652229720 14.1080660361527315
 -27.7035803190990961 -2.4007002728375282 15.9316092248750376
 -25.1583585225476050  2.5682727465626418 15.2031297016909619
 -21.7658222480048202  0.1924165746928720 14.8369617887508749
 -23.4562036039936501  4.9420242724495758 15.5683081916911288
 -30.2504649620882837 -2.6210800872782789 17.3918637267814411
 -27.7052558186884355  2.3479284509635949 16.6630643716392939
 -24.3126813433315867 -0.0277422002354586 16.2969821601056211
 -26.0032586592800605  4.7217942996424753 17.0283665335809111
 -32.7975306898830539 -2.8412066966603868 18.8519283458536542
 -30.2522401260229543  2.1276824314653773 18.1231672467743259
 -26.8595726742594998 -0.2480015781253549 17.7570410753137224
 -28.5502307249330514  4.5015654087311656 18.4883514545471073
 -35.3446397687423897 -3.0613738817277509 20.3121433645215461
 -32.7992508919965928  1.9075678290358531 19.5832200119761453
 -29.4066290247254081 -0.4681253176613015 19.2172881272670679
 -31.0973845930211894  4.2814370171678071 19.9484239411888566
 -37.8919916139242048 -3.2815741622127765 21.7722100978460631
 -35.3465713242467672  1.6874158139466360 21.0433249862460769
 -31.9538571876703728 -0.6882452856685936 20.6773460908463953
 -33.6446372459101042  4.0613444754329358 21.4084419184723700
 -40.4395552192227683 -3.5017180221486188 23.2324149894183307
 -37.8940875114673688  1.4672667759454712 22.5034751427179138
 -34.5013967603876637 -0.9084318032857998 22.1376246769555891
 -36.1920360450518572  3.8410928937330677 22.8685016418017177
 -42.9872896967703397 -3.7221645296799251 24.6924422787270395
 -40.4416860411691417  1.2469191723799480 23.9635026918766130
 -37.0490698885457235 -1.1286812136656459 23.5977299372598566
 -38.7396586822127702  3.6208484319579752 24.3285658476380675
 -45.5351084431648445 -3.9426529668682462 26.1525839733680669
 -42.9893147616366491  1.0265008936208957 25.4236475930391386
 -39.5967562349917301 -1.3491089206205420 25.0578650388635289
 -41.2874002766303221  3.4003258744815539 25.7885663253273840
 -48.0826959855201252 -4.1632555870327117 27.6127221692905458
 -45.5369163157233174  0.8058902447745320 26.8836714535058015
 -42.1444526356141154 -1.5696015900058602 26.5180350940267893
 -43.8350064061166762  3.1798123881227118 27.2487441455398098
 -50.6300337132147860 -4.3838406932503693 29.0728169714972537
 -48.0844340758341602  0.5854164421830799 28.3437984682502524
 -44.6919605819224017 -1.7902277160604567 27.9779698427242138
 -46.3824512970757112  2.9592123029640098 28.7088128860519234
 -53.1771763342897543 -4.6043307550272052 30.5330372751901642
 -50.6318803003123463  0.3648989084974524 29.8038951739003437
 -47.2393887446300837 -2.0107211422905147 29.4381439111510446
 -48.9298571395052875  2.7386650731578395 30.1690090857305826
 -55.7242272998366630 -4.8248215567328341 31.9930996179562044
 -53.1792886626624508  0.1443941760699300 31.2640513368786941
 -49.7866383455843931 -2.2312473412759797 30.8981407867144569
 -51.4769769321395856  2.5181570121558270 31.6291736790122648
 -58.2712729129958333 -5.0451467983427225 33.4532544216060970
 -55.7264433510891593 -0.0761263013432048 32.7241576888403145
 -52.3337654945640125 -2.4517411067247399 32.3582116383572398
 -54.0240699194854770  2.2976356419748738 33.0892789082786294
 -60.8182597056188214 -5.2656151166425609 34.9133378970543120
 -58.2735157229413829 -0.2965902594563584 34.1842352313409421
 -54.8808416138942974 -2.6721820795155367 33.8183426057186978
 -56.5710901181931476  2.0772470200429280 34.5492798622421660
 -63.3653145408126761 -5.4857566081018163 36.3734541785106273
 -60.8204988927835117 -0.5170467891766475 35.6443839453031117
 -57.4278340051683713 -2.8926251883627225 35.2786101097417486
 -59.1182510591283190  1.8568628652535248 36.0091477876286064
 -65.9124500414217067 -5.7059359307075299 37.8334909534944615
 -63.3675218242292573 -0.7373303916926901 37.1045905760773422
 -59.9748163878627381 -3.1129958520354362 36.7389666842926346
 -61.6653661167136420  1.6367290619990995 37.4689685525189589
 -68.4596208601481777 -5.9259240604290921 39.2934801899092037
 -65.9144601219376938 -0.9577049471807985 38.5645977531648541
 -62.5218979122010268 -3.3331270543735130 38.1993169855905066
 -64.2127359497121830  1.4166020381294224 38.9285699087719408
 -71.0069310666317506 -6.1458916444362721 40.7536148496547739
 -68.4617251770047943 -1.1778728164509169 40.0248868035684922
 -65.0689928836619913 -3.5533868331111602 39.6599939400702652
 -66.7602991570595634  1.1964547046292080 40.3876146655287016
 -73.5543025923598179 -6.3655332262199380 42.2129427799128081
 -71.0089618910283065 -1.3984413456396063 41.4853325462471076
 -67.6162356734155736 -3.7734126518682611 41.1207043516415709
 -69.3083833731432293  0.9768705048445379 41.8470365065957282
 -76.1019386636713904 -6.5851905287907435 43.6737349279171951
 -73.5567684774587605 -1.6181885503622304 42.9450296964182527
 -70.1633443292106733 -3.9934939030269989 42.5818312496471165
 -71.8571870518976823  0.7562413313030840 43.3039139380012159
 -78.6497948508471296 -6.8049982479430078 45.1299663428438649
 -76.1043888999026592 -1.8400812687919899 44.4081517646173367
 -72.7103147275302462 -4.2138668930452319 44.0437425526783599
 -74.4075018104343684  0.5382335913399796 44.7639986329543333
 -81.1977423530115630 -7.0180943636418132 46.5939925155232544
 -78.6538525624762741 -2.0605689474142324 45.8633704721241102
 -75.2572771475476259 -4.4346343978639178 45.5053512400956848
 -76.9605565051198255  0.3151394824314540 46.2146708014603007
 -83.7526130331807934 -7.2465652876807827 48.0410840527437983
 -81.2040718180095809 -2.2843998581713771 47.3302453246035668
 -77.8055151189399510 -4.6477375908158747 46.9677426395508846
 -79.5133899203007530  0.0886859858881714 47.6670132299207268
 -86.2771470484992875 -7.4595909508511316 49.5611861792242365
 -83.7575435188372666 -2.5309856042761800 48.8559453005858089
 -80.3336300515935875 -4.8931420548823450 48.4917654253565473
 -82.1098776542511501 -0.1452819114676921 49.1911129554468332
 -88.8150255810384408 -7.6937749873312846 50.8113711116349691
 -86.3108822339508777 -2.7217638259106853 50.1637491102697410
 -82.8729495512352088 -5.1062267614857442 49.8474095901367988
 -84.6648138680401843 -0.3452360956014054 50.4895975226580305
