Ag140
1.0
   5.1029417663022487    0.0000000000000000    0.0000000000000003
   2.5514708831511235    9.7478775731349021    0.0000000000000006
   0.0000000000000000    0.0000000000000000   61.1593382224926287
Ag
140
direct
  -0.4275087942236359   -0.0199824115527287    0.0208333333333333 Ag
  -0.1832180546672725    0.4914361093345449    0.0089285714285714 Ag
   0.6055939817775758    0.2471453697781816    0.0029761904761905 Ag
   0.0279699088878790    0.7357268488909083    0.0148809523809524 Ag
  -0.9160902733363625   -0.0428194533272757    0.0446428571428571 Ag
  -0.6717995337799991    0.4685990675599979    0.0327380952380952 Ag
   0.1170125026648491    0.2243083280036346    0.0267857142857143 Ag
  -0.4606115702248478    0.7128898071163613    0.0386904761904762 Ag
  -1.4046717524490890   -0.0656564951018227    0.0684523809523809 Ag
  -1.1603810128927259    0.4457620257854508    0.0565476190476190 Ag
  -0.3715689764478777    0.2014712862290876    0.0505952380952381 Ag
  -0.9491930493375745    0.6900527653418143    0.0625000000000000 Ag
  -1.8932532315618160   -0.0884935368763698    0.0922619047619047 Ag
  -1.6489624920054526    0.4229249840109038    0.0803571428571428 Ag
  -0.8601504555606043    0.1786342444545405    0.0744047619047619 Ag
  -1.4377745284503012    0.6672157235672672    0.0863095238095238 Ag
  -2.3818347106745428   -0.1113305786509168    0.1160714285714285 Ag
  -2.1375439711181796    0.4000879422363567    0.1041666666666667 Ag
  -1.3487319346733313    0.1557972026799935    0.0982142857142857 Ag
  -1.9263560075630277    0.6443786817927202    0.1101190476190476 Ag
  -2.8704161897872695   -0.1341676204254638    0.1398809523809524 Ag
  -2.6261254502309059    0.3772509004618098    0.1279761904761904 Ag
  -1.8373134137860578    0.1329601609054465    0.1220238095238095 Ag
  -2.4149374866757545    0.6215416400181731    0.1339285714285714 Ag
  -3.3589976688999963   -0.1570046622000109    0.1636904761904762 Ag
  -3.1147069293436327    0.3544138586872627    0.1517857142857142 Ag
  -2.3258948928987841    0.1101231191308994    0.1458333333333333 Ag
  -2.9035189657884812    0.5987045982436261    0.1577380952380952 Ag
  -3.8475791480127230   -0.1798417039745579    0.1875000000000000 Ag
  -3.6032884084563594    0.3315768169127156    0.1755952380952381 Ag
  -2.8144763720115105    0.0872860773563524    0.1696428571428571 Ag
  -3.3921004449012084    0.5758675564690791    0.1815476190476190 Ag
  -4.3361606271254498   -0.2026787457491050    0.2113095238095238 Ag
  -4.0918698875690867    0.3087397751381686    0.1994047619047619 Ag
  -3.3030578511242381    0.0644490355818053    0.1934523809523809 Ag
  -3.8806819240139352    0.5530305146945320    0.2053571428571428 Ag
  -4.8247421062381761   -0.2255157875236520    0.2351190476190476 Ag
  -4.5804513666818130    0.2859027333636216    0.2232142857142856 Ag
  -3.7916393302369644    0.0416119938072583    0.2172619047619047 Ag
  -4.3692634031266611    0.5301934729199850    0.2291666666666666 Ag
  -5.3133235853509024   -0.2483528292981990    0.2589285714285713 Ag
  -5.0690328457945393    0.2630656915890746    0.2470238095238095 Ag
  -4.2802208093496903    0.0187749520327113    0.2410714285714285 Ag
  -4.8578448822393883    0.5073564311454379    0.2529761904761904 Ag
  -5.8019050644636305   -0.2711898710727461    0.2827380952380952 Ag
  -5.5576143249072674    0.2402286498145275    0.2708333333333333 Ag
  -4.7688022884624184   -0.0040620897418358    0.2648809523809523 Ag
  -5.3464263613521155    0.4845193893708909    0.2767857142857142 Ag
  -6.2904865435763568   -0.2940269128472931    0.3065476190476190 Ag
  -6.0461958040199937    0.2173916080399804    0.2946428571428571 Ag
  -5.2573837675751447   -0.0268991315163828    0.2886904761904761 Ag
  -5.8350078404648418    0.4616823475963439    0.3005952380952380 Ag
  -6.7790680226890840   -0.3168639546218402    0.3303571428571428 Ag
  -6.5347772831327209    0.1945545662654334    0.3184523809523809 Ag
  -5.7459652466878719   -0.0497361732909299    0.3124999999999999 Ag
  -6.3235893195775690    0.4388453058217968    0.3244047619047619 Ag
  -7.2676495018018086   -0.3397009963963871    0.3541666666666665 Ag
  -7.0233587622454463    0.1717175244908864    0.3422619047619047 Ag
  -6.2345467258005973   -0.0725732150654768    0.3363095238095237 Ag
  -6.8121707986902944    0.4160082640472498    0.3482142857142856 Ag
  -7.7562309809145367   -0.3625380381709342    0.3779761904761904 Ag
  -7.5119402413581735    0.1488804827163393    0.3660714285714285 Ag
  -6.7231282049133245   -0.0954102568400239    0.3601190476190475 Ag
  -7.3007522778030216    0.3931712222727028    0.3720238095238094 Ag
  -8.2448124600272621   -0.3853750799454813    0.4017857142857141 Ag
  -8.0005217204708998    0.1260434409417923    0.3898809523809523 Ag
  -7.2117096840260508   -0.1182472986145709    0.3839285714285713 Ag
  -7.7893337569157479    0.3703341804981558    0.3958333333333332 Ag
  -8.7333939391399902   -0.4082121217200283    0.4255952380952380 Ag
  -8.4891031995836279    0.1032063991672452    0.4136904761904761 Ag
  -7.7002911631387780   -0.1410843403891180    0.4077380952380951 Ag
  -8.2779152360284751    0.3474971387236087    0.4196428571428570 Ag
  -9.2219754182527165   -0.4310491634945753    0.4494047619047618 Ag
  -8.9776846786963542    0.0803693573926982    0.4374999999999999 Ag
  -8.1888726422515052   -0.1639213821636650    0.4315476190476189 Ag
  -8.7664967151412014    0.3246600969490617    0.4434523809523808 Ag
  -9.7105568973654446   -0.4538862052691224    0.4732142857142856 Ag
  -9.4662661578090805    0.0575323156181511    0.4613095238095237 Ag
  -8.6774541213642316   -0.1867584239382121    0.4553571428571427 Ag
  -9.2550781942539295    0.3018230551745146    0.4672619047619047 Ag
 -10.1991383764781709   -0.4767232470436694    0.4970238095238094 Ag
  -9.9548476369218069    0.0346952738436041    0.4851190476190475 Ag
  -9.1660356004769579   -0.2095954657127591    0.4791666666666665 Ag
  -9.7436596733666558    0.2789860133999676    0.4910714285714284 Ag
 -10.6877198555908972   -0.4995602888182165    0.5208333333333333 Ag
 -10.4434291160345332    0.0118582320690572    0.5089285714285713 Ag
  -9.6546170795896842   -0.2324325074873061    0.5029761904761904 Ag
 -10.2322411524793804    0.2561489716254206    0.5148809523809522 Ag
 -11.1763013347036253   -0.5223973305927636    0.5446428571428571 Ag
 -10.9320105951472613   -0.0109788097054900    0.5327380952380951 Ag
 -10.1431985587024140   -0.2552695492618532    0.5267857142857142 Ag
 -10.7208226315921085    0.2333119298508735    0.5386904761904761 Ag
 -11.6648828138163534   -0.5452343723673106    0.5684523809523809 Ag
 -11.4205920742599893   -0.0338158514800370    0.5565476190476190 Ag
 -10.6317800378151421   -0.2781065910364004    0.5505952380952381 Ag
 -11.2094041107048383    0.2104748880763264    0.5625000000000000 Ag
 -12.1534642929290779   -0.5680714141418576    0.5922619047619047 Ag
 -11.9091735533727139   -0.0566528932545840    0.5803571428571427 Ag
 -11.1203615169278667   -0.3009436328109473    0.5744047619047619 Ag
 -11.6979855898175629    0.1876378463017794    0.5863095238095237 Ag
 -12.6420457720418060   -0.5909084559164047    0.6160714285714285 Ag
 -12.3977550324854420   -0.0794899350291311    0.6041666666666665 Ag
 -11.6089429960405930   -0.3237806745854943    0.5982142857142856 Ag
 -12.1865670689302874    0.1648008045272324    0.6101190476190474 Ag
 -13.1306272511545323   -0.6137454976909518    0.6398809523809523 Ag
 -12.8863365115981683   -0.1023269768036781    0.6279761904761904 Ag
 -12.0975244751533193   -0.3466177163600414    0.6220238095238094 Ag
 -12.6751485480430155    0.1419637627526854    0.6339285714285713 Ag
 -13.6192087302672604   -0.6365825394654988    0.6636904761904762 Ag
 -13.3749179907108964   -0.1251640185782252    0.6517857142857142 Ag
 -12.5861059542660474   -0.3694547581345884    0.6458333333333333 Ag
 -13.1637300271557436    0.1191267209781383    0.6577380952380951 Ag
 -14.1077902093799850   -0.6594195812400457    0.6874999999999999 Ag
 -13.8634994698236209   -0.1480010603527722    0.6755952380952379 Ag
 -13.0746874333787719   -0.3922917999091354    0.6696428571428570 Ag
 -13.6523115062684681    0.0962896792035913    0.6815476190476188 Ag
 -14.5963716884927130   -0.6822566230145929    0.7113095238095237 Ag
 -14.3520809489363490   -0.1708381021273193    0.6994047619047618 Ag
 -13.5632689124915000   -0.4151288416836825    0.6934523809523808 Ag
 -14.1408929853811962    0.0734526374290443    0.7053571428571427 Ag
 -15.0849531676054394   -0.7050936647891399    0.7351190476190476 Ag
 -14.8406624280490753   -0.1936751439018663    0.7232142857142856 Ag
 -14.0518503916042263   -0.4379658834582296    0.7172619047619047 Ag
 -14.6294744644939225    0.0506155956544972    0.7291666666666665 Ag
 -15.5735346467181657   -0.7279307065636869    0.7589285714285713 Ag
 -15.3292439071618034   -0.2165121856764134    0.7470238095238094 Ag
 -14.5404318707169544   -0.4608029252327766    0.7410714285714285 Ag
 -15.1180559436066506    0.0277785538799501    0.7529761904761904 Ag
 -16.0621161258308902   -0.7507677483382339    0.7827380952380950 Ag
 -15.8178253862745262   -0.2393492274509602    0.7708333333333330 Ag
 -15.0290133498296790   -0.4836399670073236    0.7648809523809522 Ag
 -15.6066374227193752    0.0049415121054031    0.7767857142857141 Ag
 -16.5506976049436183   -0.7736047901127809    0.8065476190476188 Ag
 -16.3064068653872525   -0.2621862692255073    0.7946428571428569 Ag
 -15.5175948289424070   -0.5064770087818706    0.7886904761904761 Ag
 -16.0952189018321015   -0.0178955296691439    0.8005952380952379 Ag
 -17.0392790840563464   -0.7964418318873280    0.8303571428571427 Ag
 -16.7949883444999806   -0.2850233110000544    0.8184523809523808 Ag
 -16.0061763080551351   -0.5293140505564178    0.8124999999999999 Ag
 -16.5838003809448296   -0.0407325714436910    0.8244047619047618 Ag
