Ag
 1.0000000000000000
     2.9378437966707129    0.0000000000000004    0.0000000000000002
    -1.4689218983355661    2.5442473602676969    0.0000000000000847
     0.0000000000000903    0.0000000000026009   77.5257755056813096
 Ag 
  24
Cartesian
  0.0000000000003128  0.0000000000001174  8.5436188009908758
  0.0000000000003106 -0.0000000000000899  3.7098778970971811
  0.0000000000000752  1.6961649068449138  1.2953803586238914
  1.4689218983357057  0.8480824534228053  6.1295401596949111
  0.0000000000002990  0.0000000000006061 18.2039358123040174
  0.0000000000003038  0.0000000000004303 13.3738149997881344
  0.0000000000000622  1.6961649068451321 10.9587658605605132
  1.4689218983356958  0.8480824534233867 15.7889266955349719
  0.0000000000003043  0.0000000000009404 27.8647576549751115
  0.0000000000003014  0.0000000000007768 23.0341560262540526
  0.0000000000000506  1.6961649068455298 20.6190767544626574
  1.4689218983356975  0.8480824534237149 25.4494561007407754
  0.0000000000003076  0.0000000000012670 37.5249061152294558
  0.0000000000003009  0.0000000000011048 32.6948186219676629
  0.0000000000000524  1.6961649068458711 30.2798804988785051
  1.4689218983356955  0.8480824534240409 35.1098292077617486
  0.0000000000003238  0.0000000000016593 47.1856166762683316
  0.0000000000003222  0.0000000000014312 42.3552700242231097
  0.0000000000000645  1.6961649068461926 39.9401322038384379
  1.4689218983357195  0.8480824534243885 44.7704932026658184
  0.0000000000003055  0.0000000000018614 56.8502513328107284
  0.0000000000003166  0.0000000000020129 52.0149401759905388
  0.0000000000000670  1.6961649068466720 49.6007466169580979
  1.4689218983357115  0.8480824534249087 54.4337877534754213
