Fe13
1.0
   2.4713281836767584    0.0000000000000000    0.0000000000000002
  -0.8237760612255860    2.3299905562870262    0.0000000000000002
   0.0000000000000000    0.0000000000000000   36.3209582218032097
Fe
13
direct
   0.7499999999999999    0.2500000000000000    0.0277777777777778 Fe
   0.2500000000000001    0.7500000000000002    0.0833333333333333 Fe
   0.7500000000000002    0.2500000000000002    0.1388888888888889 Fe
   0.2500000000000003    0.7500000000000000    0.1944444444444444 Fe
   0.7500000000000008    0.2500000000000003    0.2500000000000000 Fe
   0.2500000000000004    0.7500000000000006    0.3055555555555556 Fe
   0.7500000000000001    0.2500000000000005    0.3611111111111111 Fe
   0.2500000000000006    0.7500000000000007    0.4166666666666667 Fe
   0.7500000000000016    0.2500000000000006    0.4722222222222222 Fe
   0.2500000000000007    0.7500000000000008    0.5277777777777779 Fe
   0.7500000000000008    0.2500000000000008    0.5833333333333335 Fe
   0.2500000000000000    0.7500000000000019    0.6388888888888891 Fe
   0.7500000000000009    0.2500000000000009    0.6944444444444445 Fe
