Fe
 1.0000000000000000
     4.0474304839602411   -0.0000000000000001    0.0000000000000001
     2.0237152419801197    3.5051776191611652    0.0000000000001306
    -0.0000000000000321    0.0000000000007539   22.9317911745176559
 Fe 
  14
Cartesian
 -1.5177864314850855 -0.8762944047901805  1.1828751097205028
  2.5296440524751516  1.4604906746506146  0.3803701436421896
 -3.5415016734652003 -2.0446869445105800  2.8402118837169685
  0.5059288104950335  0.2920981349302001  1.8022597356360319
 -5.5652169154453128 -3.2130794842309669  4.4472357757585321
 -1.5177864314850769 -0.8762944047901897  3.6891240602481123
 -7.5889321574254192 -4.3814720239513374  6.1531952910829704
 -3.5415016734651861 -2.0446869445105702  5.3127002961755965
 -9.6126473994055264 -5.5498645636717177  7.7767715270104611
 -5.5652169154452933 -3.2130794842309434  7.0186598115000427
 -11.6363626413856416 -6.7182571033921121  9.6636358516225371
 -7.5889321574254049 -4.3814720239513338  8.6256837035415916
 -13.6600778833657461 -7.8866496431125279 11.0855254436163833
 -9.6126473994055139 -5.5498645636717363 10.2830204775380807
