79
Properties=species:S:1:pos:R:3 pbc="F F F"
Co      -5.25837729      -1.75279243       0.00000000
Co      -5.25837729       0.00000000      -1.75279243
Co      -5.25837729       0.00000000       1.75279243
Co      -5.25837729       1.75279243       0.00000000
Co      -1.75279243      -5.25837729       0.00000000
Co      -3.50558486      -1.75279243      -1.75279243
Co      -1.75279243      -3.50558486      -1.75279243
Co      -1.75279243      -1.75279243      -3.50558486
Co      -3.50558486      -3.50558486       0.00000000
Co      -3.50558486      -1.75279243       1.75279243
Co      -1.75279243      -3.50558486       1.75279243
Co      -1.75279243      -1.75279243       0.00000000
Co      -1.75279243      -1.75279243       3.50558486
Co      -1.75279243       0.00000000      -5.25837729
Co      -3.50558486       0.00000000      -3.50558486
Co      -3.50558486       1.75279243      -1.75279243
Co      -1.75279243       0.00000000      -1.75279243
Co      -1.75279243       1.75279243      -3.50558486
Co      -3.50558486       0.00000000       0.00000000
Co      -3.50558486       1.75279243       1.75279243
Co      -1.75279243       0.00000000       1.75279243
Co      -1.75279243       1.75279243       0.00000000
Co      -3.50558486       0.00000000       3.50558486
Co      -1.75279243       0.00000000       5.25837729
Co      -1.75279243       1.75279243       3.50558486
Co      -1.75279243       3.50558486      -1.75279243
Co      -3.50558486       3.50558486       0.00000000
Co      -1.75279243       3.50558486       1.75279243
Co      -1.75279243       5.25837729       0.00000000
Co       0.00000000      -5.25837729      -1.75279243
Co       0.00000000      -5.25837729       1.75279243
Co       1.75279243      -5.25837729       0.00000000
Co       0.00000000      -1.75279243      -5.25837729
Co       0.00000000      -3.50558486      -3.50558486
Co       0.00000000      -1.75279243      -1.75279243
Co       1.75279243      -3.50558486      -1.75279243
Co       1.75279243      -1.75279243      -3.50558486
Co       0.00000000      -3.50558486       0.00000000
Co       0.00000000      -1.75279243       1.75279243
Co       1.75279243      -3.50558486       1.75279243
Co       1.75279243      -1.75279243       0.00000000
Co       0.00000000      -3.50558486       3.50558486
Co       0.00000000      -1.75279243       5.25837729
Co       1.75279243      -1.75279243       3.50558486
Co       0.00000000       1.75279243      -5.25837729
Co       1.75279243       0.00000000      -5.25837729
Co       0.00000000       0.00000000      -3.50558486
Co       0.00000000       1.75279243      -1.75279243
Co       1.75279243       0.00000000      -1.75279243
Co       1.75279243       1.75279243      -3.50558486
Co       0.00000000       0.00000000       0.00000000
Co       0.00000000       1.75279243       1.75279243
Co       1.75279243       0.00000000       1.75279243
Co       1.75279243       1.75279243       0.00000000
Co       0.00000000       0.00000000       3.50558486
Co       0.00000000       1.75279243       5.25837729
Co       1.75279243       0.00000000       5.25837729
Co       1.75279243       1.75279243       3.50558486
Co       0.00000000       3.50558486      -3.50558486
Co       0.00000000       5.25837729      -1.75279243
Co       1.75279243       3.50558486      -1.75279243
Co       0.00000000       3.50558486       0.00000000
Co       0.00000000       5.25837729       1.75279243
Co       1.75279243       3.50558486       1.75279243
Co       1.75279243       5.25837729       0.00000000
Co       0.00000000       3.50558486       3.50558486
Co       3.50558486      -1.75279243      -1.75279243
Co       3.50558486      -3.50558486       0.00000000
Co       3.50558486      -1.75279243       1.75279243
Co       5.25837729      -1.75279243       0.00000000
Co       3.50558486       0.00000000      -3.50558486
Co       3.50558486       1.75279243      -1.75279243
Co       5.25837729       0.00000000      -1.75279243
Co       3.50558486       0.00000000       0.00000000
Co       3.50558486       1.75279243       1.75279243
Co       5.25837729       0.00000000       1.75279243
Co       5.25837729       1.75279243       0.00000000
Co       3.50558486       0.00000000       3.50558486
Co       3.50558486       3.50558486       0.00000000
