Fe
 1.0000000000000000
     2.8331394361351236    0.0000000000000000    0.0000000000000002
    -0.0000000000000014    2.8331394360842030   -0.0000000000059998
    -0.0000000000005367   -0.0000000002311290   89.7480815765664914
 Fe 
  54
Cartesian
 -0.0000000000003346 -0.0000000000172611  2.2753997697690038
  1.4165697180672281  1.4165697180219823  0.7911160974798325
 -0.0000000000003049 -0.0000000000133375  5.2172001473201011
  1.4165697180672310  1.4165697180270023  3.7618769724351195
 -0.0000000000002110 -0.0000000000087182  8.1300583746112576
  1.4165697180673005  1.4165697180308128  6.6775774605246667
 -0.0000000000001792 -0.0000000000049606 11.0139972159134896
  1.4165697180673806  1.4165697180358912  9.5730018016591298
 -0.0000000000002544 -0.0000000000117298 13.8950656382072157
  1.4165697180673538  1.4165697180356742 12.4546839335469119
 -0.0000000000003465 -0.0000000000337105 16.7744814482385571
  1.4165697180672592  1.4165697180209997 15.3349751314698555
 -0.0000000000004398 -0.0000000000608401 19.6532675650022988
  1.4165697180671708  1.4165697179944299 18.2140313908381195
 -0.0000000000004979 -0.0000000000778461 22.5320039528891094
  1.4165697180670800  1.4165697179708781 21.0927608098230976
 -0.0000000000004213 -0.0000000000811471 25.4106503050200878
  1.4165697180670866  1.4165697179612855 23.9712950880862863
 -0.0000000000003114 -0.0000000000794288 28.2891595256242745
  1.4165697180672037  1.4165697179618382 26.8499175955797185
 -0.0000000000003049 -0.0000000000806610 31.1677876254547428
  1.4165697180672698  1.4165697179626393 29.7285226711593467
 -0.0000000000003799 -0.0000000000861279 34.0463644499788316
  1.4165697180672252  1.4165697179591419 32.6069983075614260
 -0.0000000000004396 -0.0000000000940929 36.9248653232184765
  1.4165697180671415  1.4165697179521954 35.4856974330566430
 -0.0000000000004066 -0.0000000001030914 39.8035489642854472
  1.4165697180671253  1.4165697179435590 38.3641349895139854
 -0.0000000000003196 -0.0000000001117145 42.6819865207469960
  1.4165697180671961  1.4165697179345538 41.2428186305824340
 -0.0000000000002637 -0.0000000001184273 45.5606856462518053
  1.4165697180672758  1.4165697179266914 44.1213195038293335
 -0.0000000000002427 -0.0000000001216173 48.4391612826623117
  1.4165697180673069  1.4165697179215457 46.9998963283634765
 -0.0000000000001883 -0.0000000001208003 51.3177663582433041
  1.4165697180673371  1.4165697179205003 49.8785244281987445
 -0.0000000000001432 -0.0000000001204711 54.1963888657347326
  1.4165697180674053  1.4165697179220917 52.7570336488015030
 -0.0000000000002382 -0.0000000001303631 57.0749231439972462
  1.4165697180673924  1.4165697179185168 55.6356800009314298
 -0.0000000000004250 -0.0000000001541581 59.9536525629755772
  1.4165697180672316  1.4165697179012120 58.5144163888159028
 -0.0000000000005575 -0.0000000001806563 62.8327088223263885
  1.4165697180670558  1.4165697178739685 61.3932025055671318
 -0.0000000000006012 -0.0000000001949921 65.7130000202332667
  1.4165697180669747  1.4165697178522356 64.2726183155792228
 -0.0000000000006083 -0.0000000001950528 68.5946821521208534
  1.4165697180669536  1.4165697178457664 67.1536867378633957
 -0.0000000000005705 -0.0000000001900637 71.4901064932702752
  1.4165697180669641  1.4165697178495182 70.0376255791735787
 -0.0000000000004890 -0.0000000001861872 74.4058069813832361
  1.4165697180670300  1.4165697178540881 72.9504838064810741
 -0.0000000000004487 -0.0000000001810388 77.3765678563445363
  1.4165697180671013  1.4165697178581633 75.8922841840292222
