Ag84
1.0
   2.9461848024335877    0.0000000000000000   -0.0000000000000005
   1.4730924012167950    9.9680047966416883    0.0000000000000006
   0.0000000000000000    0.0000000000000000   64.1282354707083044
Ag
84
direct
  -0.2530887064617922   -0.0354892537430823    0.0208333333333333 Ag
   0.9805316379644774    0.4972700574043782    0.0016025641025641 Ag
   0.6082615805600990    0.2418101722131348    0.0048076923076923 Ag
  -0.1144389934836842    0.6872113203007005    0.0368589743589744 Ag
  -0.7203293953143318   -0.1010078760380036    0.0592948717948718 Ag
   0.5132909491119378    0.4317514351094570    0.0400641025641026 Ag
   0.1410208917075595    0.1762915499182136    0.0432692307692308 Ag
  -0.5816796823362238    0.6216926980057793    0.0753205128205128 Ag
  -1.1875700841668715   -0.1665264983329248    0.0977564102564102 Ag
   0.0460502602593982    0.3662328128145358    0.0785256410256410 Ag
  -0.3262197971449802    0.1107729276232923    0.0817307692307692 Ag
  -1.0489203711887634    0.5561740757108581    0.1137820512820513 Ag
  -1.6548107730194110   -0.2320451206278461    0.1362179487179487 Ag
  -0.4211904285931414    0.3007141905196145    0.1169871794871795 Ag
  -0.7934604859975196    0.0452543053283711    0.1201923076923077 Ag
  -1.5161610600413031    0.4906554534159368    0.1522435897435898 Ag
  -2.1220514618719504   -0.2975637429227673    0.1746794871794871 Ag
  -0.8884311174456813    0.2351955682246932    0.1554487179487180 Ag
  -1.2607011748500596   -0.0202643169665502    0.1586538461538462 Ag
  -1.9834017488938425    0.4251368311210156    0.1907051282051282 Ag
  -2.5892921507244906   -0.3630823652176886    0.2131410256410256 Ag
  -1.3556718062982205    0.1696769459297720    0.1939102564102564 Ag
  -1.7279418637025989   -0.0857829392614714    0.1971153846153846 Ag
  -2.4506424377463820    0.3596182088260943    0.2291666666666667 Ag
  -3.0565328395770295   -0.4286009875126098    0.2516025641025640 Ag
  -1.8229124951507600    0.1041583236348508    0.2323717948717949 Ag
  -2.1951825525551381   -0.1513015615563926    0.2355769230769230 Ag
  -2.9178831265989222    0.2940995865311730    0.2676282051282051 Ag
  -3.5237735284295688   -0.4941196098075310    0.2900641025641025 Ag
  -2.2901531840032994    0.0386397013399296    0.2708333333333333 Ag
  -2.6624232414076774   -0.2168201838513138    0.2740384615384615 Ag
  -3.3851238154514620    0.2285809642362517    0.3060897435897436 Ag
  -3.9910142172821090   -0.5596382321024523    0.3285256410256410 Ag
  -2.7573938728558396   -0.0268789209549918    0.3092948717948718 Ag
  -3.1296639302602176   -0.2823388061462351    0.3124999999999999 Ag
  -3.8523645043040009    0.1630623419413305    0.3445512820512820 Ag
  -4.4582549061346484   -0.6251568543973736    0.3669871794871794 Ag
  -3.2246345617083785   -0.0923975432499130    0.3477564102564102 Ag
  -3.5969046191127565   -0.3478574284411564    0.3509615384615384 Ag
  -4.3196051931565398    0.0975437196464094    0.3830128205128204 Ag
  -4.9254955949871881   -0.6906754766922948    0.4054487179487179 Ag
  -3.6918752505609183   -0.1579161655448342    0.3862179487179487 Ag
  -4.0641453079652967   -0.4133760507360776    0.3894230769230769 Ag
  -4.7868458820090805    0.0320250973514880    0.4214743589743590 Ag
  -5.3927362838397270   -0.7561940989872160    0.4439102564102563 Ag
  -4.1591159394134580   -0.2234347878397555    0.4246794871794871 Ag
  -4.5313859968178365   -0.4788946730309989    0.4278846153846153 Ag
  -5.2540865708616193   -0.0334935249434332    0.4599358974358974 Ag
  -5.8599769726922668   -0.8217127212821373    0.4823717948717948 Ag
  -4.6263566282659978   -0.2889534101346767    0.4631410256410256 Ag
  -4.9986266856703754   -0.5444132953259201    0.4663461538461537 Ag
  -5.7213272597141600   -0.0990121472383545    0.4983974358974359 Ag
  -6.3272176615448075   -0.8872313435770587    0.5208333333333334 Ag
  -5.0935973171185367   -0.3544720324295980    0.5016025641025640 Ag
  -5.4658673745229143   -0.6099319176208412    0.5048076923076922 Ag
  -6.1885679485666989   -0.1645307695332757    0.5368589743589743 Ag
  -6.7944583503973464   -0.9527499658719799    0.5592948717948717 Ag
  -5.5608380059710774   -0.4199906547245193    0.5400641025641025 Ag
  -5.9331080633754549   -0.6754505399157625    0.5432692307692306 Ag
  -6.6558086374192378   -0.2300493918281969    0.5753205128205128 Ag
  -7.2616990392498861   -1.0182685881669011    0.5977564102564101 Ag
  -6.0280786948236162   -0.4855092770194405    0.5785256410256410 Ag
  -6.4003487522279938   -0.7409691622106838    0.5817307692307691 Ag
  -7.1230493262717776   -0.2955680141231181    0.6137820512820512 Ag
  -7.7289397281024259   -1.0837872104618225    0.6362179487179487 Ag
  -6.4953193836761569   -0.5510278993143618    0.6169871794871794 Ag
  -6.8675894410805336   -0.8064877845056051    0.6201923076923076 Ag
  -7.5902900151243173   -0.3610866364180395    0.6522435897435896 Ag
  -8.1961804169549648   -1.1493058327567436    0.6746794871794871 Ag
  -6.9625600725286958   -0.6165465216092830    0.6554487179487178 Ag
  -7.3348301299330734   -0.8720064068005263    0.6586538461538460 Ag
  -8.0575307039768571   -0.4266052587129606    0.6907051282051281 Ag
  -8.6634211058075046   -1.2148244550516647    0.7131410256410255 Ag
  -7.4298007613812347   -0.6820651439042041    0.6939102564102563 Ag
  -7.8020708187856123   -0.9375250290954475    0.6971153846153845 Ag
  -8.5247713928293951   -0.4921238810078818    0.7291666666666665 Ag
  -9.1306617946600426   -1.2803430773465860    0.7516025641025640 Ag
  -7.8970414502337736   -0.7475837661991254    0.7323717948717947 Ag
  -8.2693115076381520   -1.0030436513903687    0.7355769230769229 Ag
  -8.9920120816819349   -0.5576425033028030    0.7676282051282050 Ag
  -9.5979024835125841   -1.3458616996415074    0.7900641025641025 Ag
  -8.3642821390863151   -0.8131023884940469    0.7708333333333334 Ag
  -8.7365521964906936   -1.0685622736852902    0.7740384615384615 Ag
  -9.4592527705344764   -0.6231611255977245    0.8060897435897435 Ag
