Ag
 1.0000000000000000
     2.9308942774727376   -0.0000000000000001   -0.0000000000000004
     1.4654471387369363    9.9514743502986569    0.0008754693843629
     0.0000000000032279    0.0056179277048664   64.5698735479963517
 Ag 
  84
Cartesian
 -0.7937838668161008 -0.3258869269743789  1.4437004122773414
  3.6025575493931794  4.8469800312454305  0.2733446115189381
  2.1371104106567991  2.3716096261442097  0.4535925301150542
  0.6716632719205166  6.8827035973094111  2.3250808634190303
 -2.2592310055526164 -1.0339820560956785  3.8577293553435044
  2.1371104106567969  4.3441299437535905  2.6846912748398202
  0.6716632719203652  1.7542856574214920  2.8825532418446680
 -0.7937838668159655  6.2013044383684557  4.9009365826662705
 -3.7246781442891352 -1.6559079305688182  6.3603281062173043
  0.6716632719203431  3.6434431674904983  5.1474480590140894
 -0.7937838668161091  1.0891799273158023  5.3505932784861185
 -2.2592310055524791  5.5412545873361312  7.3849584756262789
 -5.1901252830256457 -2.3084929957334550  8.8406338258002553
 -0.7937838668161478  2.9908217282637950  7.6124929558561929
 -2.2592310055525995  0.4455592863502913  7.8237348042857313
 -3.7246781442889962  4.8874448630697911  9.8639865689864674
 -6.6555724217621730 -2.9602251742656418 11.3186804513894455
 -2.2592310055526843  2.3406261671273927 10.0853177647875594
 -3.7246781442890997 -0.2045477204085546 10.2995518882158610
 -5.1901252830255364  4.2350068093650419 12.3415620774416297
 -8.1210195604987696 -3.6119695158577949 13.7959109558383197
 -3.7246781442892178  1.6892233443867057 12.5601921515475308
 -5.1901252830256448 -0.8557683146270623 12.7756322074257884
 -6.6555724217620869  3.5829487440001881 14.8184379897528462
 -9.5864666992353040 -4.2634069540254611 16.2725384086952118
 -5.1901252830257718  1.0377403554882050 15.0360144654188250
 -6.6555724217622112 -1.5069941328503687 15.2520042994360576
 -8.1210195604987678  2.9316437401966899 17.2951699161571533
 -11.0519138379718580 -4.9145301366049212 18.7490611003823702
 -6.6555724217623844  0.3865732079089887 17.5123679051775092
 -8.1210195604987732 -2.1581796714860468 17.7282816917475685
 -9.5864666992352809  2.2805694407105928 19.7716920406766334
 -12.5173609767083800 -5.5655173259765531 21.2256178691527850
 -8.1210195604989632 -0.2644155328723119 19.9886465629617334
 -9.5864666992354124 -2.8092317312438753 20.2045242906753515
 -11.0519138379718811  1.6298427327120868 22.2481611389011604
 -13.9828081154451027 -6.2161685765998538 23.7022917962445945
 -9.5864666992355847 -0.9151137413941720 22.4647496406870566
 -11.0519138379719646 -3.4599678099325515 22.6807633371894859
 -12.5173609767084013  0.9790590793285519 24.7246018511991643
 -15.4482552541816602 -6.8673032855330600 26.1787795693181202
 -11.0519138379721706 -1.5659236988704679 24.9408681331349023
 -12.5173609767086464 -4.1107696134202634 25.1573010692489873
 -13.9828081154450512  0.3274088957068517 27.2008179716055025
 -16.9137023929182462 -7.5193333931485009 28.6550572474521843
 -12.5173609767087584 -2.2176291876689000 27.4170734378511902
 -13.9828081154451969 -4.7624809344679297 27.6338697924170837
 -15.4482552541816602 -0.3248862617250147 29.6769620452527363
 -18.3791495316547966 -8.1717675535247913 31.1312993060734193
 -13.9828081154453958 -2.8699794030815622 29.8934770065474744
 -15.4482552541817757 -5.4148478614966944 30.1104622191828248
 -16.9137023929182959 -0.9771959084197589 32.1531698050199992
 -19.8445966703912013 -8.8239924270785259 33.6076159902083731
 -15.4482552541819782 -3.5222976833263977 32.3698737023423675
 -16.9137023929183705 -6.0672049729542028 32.5869619500552616
 -18.3791495316549351 -1.6290530979482558 34.6295632707486263
 -21.3100438091281355 -9.4757636019839619 36.0839961685105379
 -16.9137023929185801 -4.1741753823871797 34.8463289726529339
 -18.3791495316549955 -6.7190789807608260 35.0634275009078351
 -19.8445966703915637 -2.2808983894315973 37.1058303312116990
 -22.7754909478647036 -10.1274049581678174 38.5602025964928288
 -18.3791495316552300 -4.8260735643215327 37.3228663185556186
 -19.8445966703916419 -7.3709770116158255 37.5401092243685781
 -21.3100438091280928 -2.9324830449762920 39.5819329076634574
 -24.2409380866013358 -10.7786824599366682 41.0364383639793502
 -19.8445966703918089 -5.4780434622928080 39.7993660486885474
 -21.3100438091282527 -8.0228364917742336 40.0170238979421100
 -22.7754909478646184 -3.5840856622515447 42.0574512164534369
 -25.7063852253378720 -11.4296603383729085 43.5119526656303393
 -21.3100438091283770 -6.1298930056094543 42.2764158257906288
 -22.7754909478649239 -8.6743159630912352 42.4945929948958678
 -24.2409380866012505 -4.2356063457646167 44.5323954205031072
 -27.1718323640744259 -12.0802047228657035 45.9846168217000582
 -22.7754909478648813 -6.7835773533648176 44.7540069314325564
 -24.2409380866013677 -9.3270717085299619 44.9731619243105243
 -25.7063852253377796 -4.8893775626535971 47.0013779225944290
 -28.6372795028109337 -12.7257399449049586 48.4650643256668872
 -24.2409380866014104 -7.4410774690529378 47.2344030320097730
 -25.7063852253378968 -9.9718512482064270 47.4601319521490126
 -27.1718323640743122 -5.5861521954934590 49.4788879161258777
 -30.1027266415474166 -13.3932617166309775 50.8680212139246066
 -25.7063852253379750 -8.1527859116557782 49.7724589866869422
 -27.1718323640744863 -10.6526120745495323 49.9377313779809029
 -28.6372795028107703 -6.1462184415758951 51.8410561159090975
