2075
Properties=species:S:1:pos:R:3 pbc="F F F"
Au     -18.79404739     -10.44113744       0.00000000
Au     -20.88227488      -6.26468246      -2.08822749
Au     -18.79404739      -8.35290995      -2.08822749
Au     -18.79404739      -6.26468246      -4.17645498
Au     -20.88227488      -8.35290995       0.00000000
Au     -20.88227488      -6.26468246       2.08822749
Au     -18.79404739      -8.35290995       2.08822749
Au     -18.79404739      -6.26468246       0.00000000
Au     -18.79404739      -6.26468246       4.17645498
Au     -20.88227488      -2.08822749      -6.26468246
Au     -18.79404739      -4.17645498      -6.26468246
Au     -18.79404739      -2.08822749      -8.35290995
Au     -20.88227488      -4.17645498      -4.17645498
Au     -20.88227488      -2.08822749      -2.08822749
Au     -18.79404739      -4.17645498      -2.08822749
Au     -18.79404739      -2.08822749      -4.17645498
Au     -20.88227488      -4.17645498       0.00000000
Au     -20.88227488      -2.08822749       2.08822749
Au     -18.79404739      -4.17645498       2.08822749
Au     -18.79404739      -2.08822749       0.00000000
Au     -20.88227488      -4.17645498       4.17645498
Au     -20.88227488      -2.08822749       6.26468246
Au     -18.79404739      -4.17645498       6.26468246
Au     -18.79404739      -2.08822749       4.17645498
Au     -18.79404739      -2.08822749       8.35290995
Au     -18.79404739       0.00000000     -10.44113744
Au     -20.88227488       0.00000000      -8.35290995
Au     -20.88227488       2.08822749      -6.26468246
Au     -18.79404739       0.00000000      -6.26468246
Au     -18.79404739       2.08822749      -8.35290995
Au     -20.88227488       0.00000000      -4.17645498
Au     -20.88227488       2.08822749      -2.08822749
Au     -18.79404739       0.00000000      -2.08822749
Au     -18.79404739       2.08822749      -4.17645498
Au     -20.88227488       0.00000000       0.00000000
Au     -20.88227488       2.08822749       2.08822749
Au     -18.79404739       0.00000000       2.08822749
Au     -18.79404739       2.08822749       0.00000000
Au     -20.88227488       0.00000000       4.17645498
Au     -20.88227488       2.08822749       6.26468246
Au     -18.79404739       0.00000000       6.26468246
Au     -18.79404739       2.08822749       4.17645498
Au     -20.88227488       0.00000000       8.35290995
Au     -18.79404739       0.00000000      10.44113744
Au     -18.79404739       2.08822749       8.35290995
Au     -18.79404739       4.17645498      -6.26468246
Au     -20.88227488       4.17645498      -4.17645498
Au     -20.88227488       6.26468246      -2.08822749
Au     -18.79404739       4.17645498      -2.08822749
Au     -18.79404739       6.26468246      -4.17645498
Au     -20.88227488       4.17645498       0.00000000
Au     -20.88227488       6.26468246       2.08822749
Au     -18.79404739       4.17645498       2.08822749
Au     -18.79404739       6.26468246       0.00000000
Au     -20.88227488       4.17645498       4.17645498
Au     -18.79404739       4.17645498       6.26468246
Au     -18.79404739       6.26468246       4.17645498
Au     -18.79404739       8.35290995      -2.08822749
Au     -20.88227488       8.35290995       0.00000000
Au     -18.79404739       8.35290995       2.08822749
Au     -18.79404739      10.44113744       0.00000000
Au     -14.61759241     -14.61759241       0.00000000
Au     -16.70581990     -10.44113744      -2.08822749
Au     -14.61759241     -12.52936493      -2.08822749
Au     -14.61759241     -10.44113744      -4.17645498
Au     -16.70581990     -12.52936493       0.00000000
Au     -16.70581990     -10.44113744       2.08822749
Au     -14.61759241     -12.52936493       2.08822749
Au     -14.61759241     -10.44113744       0.00000000
Au     -14.61759241     -10.44113744       4.17645498
Au     -16.70581990      -6.26468246      -6.26468246
Au     -14.61759241      -8.35290995      -6.26468246
Au     -14.61759241      -6.26468246      -8.35290995
Au     -16.70581990      -8.35290995      -4.17645498
Au     -16.70581990      -6.26468246      -2.08822749
Au     -14.61759241      -8.35290995      -2.08822749
Au     -14.61759241      -6.26468246      -4.17645498
Au     -16.70581990      -8.35290995       0.00000000
Au     -16.70581990      -6.26468246       2.08822749
Au     -14.61759241      -8.35290995       2.08822749
Au     -14.61759241      -6.26468246       0.00000000
Au     -16.70581990      -8.35290995       4.17645498
Au     -16.70581990      -6.26468246       6.26468246
Au     -14.61759241      -8.35290995       6.26468246
Au     -14.61759241      -6.26468246       4.17645498
Au     -14.61759241      -6.26468246       8.35290995
Au     -16.70581990      -2.08822749     -10.44113744
Au     -14.61759241      -4.17645498     -10.44113744
Au     -14.61759241      -2.08822749     -12.52936493
Au     -16.70581990      -4.17645498      -8.35290995
Au     -16.70581990      -2.08822749      -6.26468246
Au     -14.61759241      -4.17645498      -6.26468246
Au     -14.61759241      -2.08822749      -8.35290995
Au     -16.70581990      -4.17645498      -4.17645498
Au     -16.70581990      -2.08822749      -2.08822749
Au     -14.61759241      -4.17645498      -2.08822749
Au     -14.61759241      -2.08822749      -4.17645498
Au     -16.70581990      -4.17645498       0.00000000
Au     -16.70581990      -2.08822749       2.08822749
Au     -14.61759241      -4.17645498       2.08822749
Au     -14.61759241      -2.08822749       0.00000000
Au     -16.70581990      -4.17645498       4.17645498
Au     -16.70581990      -2.08822749       6.26468246
Au     -14.61759241      -4.17645498       6.26468246
Au     -14.61759241      -2.08822749       4.17645498
Au     -16.70581990      -4.17645498       8.35290995
Au     -16.70581990      -2.08822749      10.44113744
Au     -14.61759241      -4.17645498      10.44113744
Au     -14.61759241      -2.08822749       8.35290995
Au     -14.61759241      -2.08822749      12.52936493
Au     -14.61759241       0.00000000     -14.61759241
Au     -16.70581990       0.00000000     -12.52936493
Au     -16.70581990       2.08822749     -10.44113744
Au     -14.61759241       0.00000000     -10.44113744
Au     -14.61759241       2.08822749     -12.52936493
Au     -16.70581990       0.00000000      -8.35290995
Au     -16.70581990       2.08822749      -6.26468246
Au     -14.61759241       0.00000000      -6.26468246
Au     -14.61759241       2.08822749      -8.35290995
Au     -16.70581990       0.00000000      -4.17645498
Au     -16.70581990       2.08822749      -2.08822749
Au     -14.61759241       0.00000000      -2.08822749
Au     -14.61759241       2.08822749      -4.17645498
Au     -16.70581990       0.00000000       0.00000000
Au     -16.70581990       2.08822749       2.08822749
Au     -14.61759241       0.00000000       2.08822749
Au     -14.61759241       2.08822749       0.00000000
Au     -16.70581990       0.00000000       4.17645498
Au     -16.70581990       2.08822749       6.26468246
Au     -14.61759241       0.00000000       6.26468246
Au     -14.61759241       2.08822749       4.17645498
Au     -16.70581990       0.00000000       8.35290995
Au     -16.70581990       2.08822749      10.44113744
Au     -14.61759241       0.00000000      10.44113744
Au     -14.61759241       2.08822749       8.35290995
Au     -16.70581990       0.00000000      12.52936493
Au     -14.61759241       0.00000000      14.61759241
Au     -14.61759241       2.08822749      12.52936493
Au     -14.61759241       4.17645498     -10.44113744
Au     -16.70581990       4.17645498      -8.35290995
Au     -16.70581990       6.26468246      -6.26468246
Au     -14.61759241       4.17645498      -6.26468246
Au     -14.61759241       6.26468246      -8.35290995
Au     -16.70581990       4.17645498      -4.17645498
Au     -16.70581990       6.26468246      -2.08822749
Au     -14.61759241       4.17645498      -2.08822749
Au     -14.61759241       6.26468246      -4.17645498
Au     -16.70581990       4.17645498       0.00000000
Au     -16.70581990       6.26468246       2.08822749
Au     -14.61759241       4.17645498       2.08822749
Au     -14.61759241       6.26468246       0.00000000
Au     -16.70581990       4.17645498       4.17645498
Au     -16.70581990       6.26468246       6.26468246
Au     -14.61759241       4.17645498       6.26468246
Au     -14.61759241       6.26468246       4.17645498
Au     -16.70581990       4.17645498       8.35290995
Au     -14.61759241       4.17645498      10.44113744
Au     -14.61759241       6.26468246       8.35290995
Au     -14.61759241       8.35290995      -6.26468246
Au     -16.70581990       8.35290995      -4.17645498
Au     -16.70581990      10.44113744      -2.08822749
Au     -14.61759241       8.35290995      -2.08822749
Au     -14.61759241      10.44113744      -4.17645498
Au     -16.70581990       8.35290995       0.00000000
Au     -16.70581990      10.44113744       2.08822749
Au     -14.61759241       8.35290995       2.08822749
Au     -14.61759241      10.44113744       0.00000000
Au     -16.70581990       8.35290995       4.17645498
Au     -14.61759241       8.35290995       6.26468246
Au     -14.61759241      10.44113744       4.17645498
Au     -14.61759241      12.52936493      -2.08822749
Au     -16.70581990      12.52936493       0.00000000
Au     -14.61759241      12.52936493       2.08822749
Au     -14.61759241      14.61759241       0.00000000
Au     -10.44113744     -18.79404739       0.00000000
Au     -12.52936493     -14.61759241      -2.08822749
Au     -10.44113744     -16.70581990      -2.08822749
Au     -10.44113744     -14.61759241      -4.17645498
Au     -12.52936493     -16.70581990       0.00000000
Au     -12.52936493     -14.61759241       2.08822749
Au     -10.44113744     -16.70581990       2.08822749
Au     -10.44113744     -14.61759241       0.00000000
Au     -10.44113744     -14.61759241       4.17645498
Au     -12.52936493     -10.44113744      -6.26468246
Au     -10.44113744     -12.52936493      -6.26468246
Au     -10.44113744     -10.44113744      -8.35290995
Au     -12.52936493     -12.52936493      -4.17645498
Au     -12.52936493     -10.44113744      -2.08822749
Au     -10.44113744     -12.52936493      -2.08822749
Au     -10.44113744     -10.44113744      -4.17645498
Au     -12.52936493     -12.52936493       0.00000000
Au     -12.52936493     -10.44113744       2.08822749
Au     -10.44113744     -12.52936493       2.08822749
Au     -10.44113744     -10.44113744       0.00000000
Au     -12.52936493     -12.52936493       4.17645498
Au     -12.52936493     -10.44113744       6.26468246
Au     -10.44113744     -12.52936493       6.26468246
Au     -10.44113744     -10.44113744       4.17645498
Au     -10.44113744     -10.44113744       8.35290995
Au     -12.52936493      -6.26468246     -10.44113744
Au     -10.44113744      -8.35290995     -10.44113744
Au     -10.44113744      -6.26468246     -12.52936493
Au     -12.52936493      -8.35290995      -8.35290995
Au     -12.52936493      -6.26468246      -6.26468246
Au     -10.44113744      -8.35290995      -6.26468246
Au     -10.44113744      -6.26468246      -8.35290995
Au     -12.52936493      -8.35290995      -4.17645498
Au     -12.52936493      -6.26468246      -2.08822749
Au     -10.44113744      -8.35290995      -2.08822749
Au     -10.44113744      -6.26468246      -4.17645498
Au     -12.52936493      -8.35290995       0.00000000
Au     -12.52936493      -6.26468246       2.08822749
Au     -10.44113744      -8.35290995       2.08822749
Au     -10.44113744      -6.26468246       0.00000000
Au     -12.52936493      -8.35290995       4.17645498
Au     -12.52936493      -6.26468246       6.26468246
Au     -10.44113744      -8.35290995       6.26468246
Au     -10.44113744      -6.26468246       4.17645498
Au     -12.52936493      -8.35290995       8.35290995
Au     -12.52936493      -6.26468246      10.44113744
Au     -10.44113744      -8.35290995      10.44113744
Au     -10.44113744      -6.26468246       8.35290995
Au     -10.44113744      -6.26468246      12.52936493
Au     -12.52936493      -2.08822749     -14.61759241
Au     -10.44113744      -4.17645498     -14.61759241
Au     -10.44113744      -2.08822749     -16.70581990
Au     -12.52936493      -4.17645498     -12.52936493
Au     -12.52936493      -2.08822749     -10.44113744
Au     -10.44113744      -4.17645498     -10.44113744
Au     -10.44113744      -2.08822749     -12.52936493
Au     -12.52936493      -4.17645498      -8.35290995
Au     -12.52936493      -2.08822749      -6.26468246
Au     -10.44113744      -4.17645498      -6.26468246
Au     -10.44113744      -2.08822749      -8.35290995
Au     -12.52936493      -4.17645498      -4.17645498
Au     -12.52936493      -2.08822749      -2.08822749
Au     -10.44113744      -4.17645498      -2.08822749
Au     -10.44113744      -2.08822749      -4.17645498
Au     -12.52936493      -4.17645498       0.00000000
Au     -12.52936493      -2.08822749       2.08822749
Au     -10.44113744      -4.17645498       2.08822749
Au     -10.44113744      -2.08822749       0.00000000
Au     -12.52936493      -4.17645498       4.17645498
Au     -12.52936493      -2.08822749       6.26468246
Au     -10.44113744      -4.17645498       6.26468246
Au     -10.44113744      -2.08822749       4.17645498
Au     -12.52936493      -4.17645498       8.35290995
Au     -12.52936493      -2.08822749      10.44113744
Au     -10.44113744      -4.17645498      10.44113744
Au     -10.44113744      -2.08822749       8.35290995
Au     -12.52936493      -4.17645498      12.52936493
Au     -12.52936493      -2.08822749      14.61759241
Au     -10.44113744      -4.17645498      14.61759241
Au     -10.44113744      -2.08822749      12.52936493
Au     -10.44113744      -2.08822749      16.70581990
Au     -10.44113744       0.00000000     -18.79404739
Au     -12.52936493       0.00000000     -16.70581990
Au     -12.52936493       2.08822749     -14.61759241
Au     -10.44113744       0.00000000     -14.61759241
Au     -10.44113744       2.08822749     -16.70581990
Au     -12.52936493       0.00000000     -12.52936493
Au     -12.52936493       2.08822749     -10.44113744
Au     -10.44113744       0.00000000     -10.44113744
Au     -10.44113744       2.08822749     -12.52936493
Au     -12.52936493       0.00000000      -8.35290995
Au     -12.52936493       2.08822749      -6.26468246
Au     -10.44113744       0.00000000      -6.26468246
Au     -10.44113744       2.08822749      -8.35290995
Au     -12.52936493       0.00000000      -4.17645498
Au     -12.52936493       2.08822749      -2.08822749
Au     -10.44113744       0.00000000      -2.08822749
Au     -10.44113744       2.08822749      -4.17645498
Au     -12.52936493       0.00000000       0.00000000
Au     -12.52936493       2.08822749       2.08822749
Au     -10.44113744       0.00000000       2.08822749
Au     -10.44113744       2.08822749       0.00000000
Au     -12.52936493       0.00000000       4.17645498
Au     -12.52936493       2.08822749       6.26468246
Au     -10.44113744       0.00000000       6.26468246
Au     -10.44113744       2.08822749       4.17645498
Au     -12.52936493       0.00000000       8.35290995
Au     -12.52936493       2.08822749      10.44113744
Au     -10.44113744       0.00000000      10.44113744
Au     -10.44113744       2.08822749       8.35290995
Au     -12.52936493       0.00000000      12.52936493
Au     -12.52936493       2.08822749      14.61759241
Au     -10.44113744       0.00000000      14.61759241
Au     -10.44113744       2.08822749      12.52936493
Au     -12.52936493       0.00000000      16.70581990
Au     -10.44113744       0.00000000      18.79404739
Au     -10.44113744       2.08822749      16.70581990
Au     -10.44113744       4.17645498     -14.61759241
Au     -12.52936493       4.17645498     -12.52936493
Au     -12.52936493       6.26468246     -10.44113744
Au     -10.44113744       4.17645498     -10.44113744
Au     -10.44113744       6.26468246     -12.52936493
Au     -12.52936493       4.17645498      -8.35290995
Au     -12.52936493       6.26468246      -6.26468246
Au     -10.44113744       4.17645498      -6.26468246
Au     -10.44113744       6.26468246      -8.35290995
Au     -12.52936493       4.17645498      -4.17645498
Au     -12.52936493       6.26468246      -2.08822749
Au     -10.44113744       4.17645498      -2.08822749
Au     -10.44113744       6.26468246      -4.17645498
Au     -12.52936493       4.17645498       0.00000000
Au     -12.52936493       6.26468246       2.08822749
Au     -10.44113744       4.17645498       2.08822749
Au     -10.44113744       6.26468246       0.00000000
Au     -12.52936493       4.17645498       4.17645498
Au     -12.52936493       6.26468246       6.26468246
Au     -10.44113744       4.17645498       6.26468246
Au     -10.44113744       6.26468246       4.17645498
Au     -12.52936493       4.17645498       8.35290995
Au     -12.52936493       6.26468246      10.44113744
Au     -10.44113744       4.17645498      10.44113744
Au     -10.44113744       6.26468246       8.35290995
Au     -12.52936493       4.17645498      12.52936493
Au     -10.44113744       4.17645498      14.61759241
Au     -10.44113744       6.26468246      12.52936493
Au     -10.44113744       8.35290995     -10.44113744
Au     -12.52936493       8.35290995      -8.35290995
Au     -12.52936493      10.44113744      -6.26468246
Au     -10.44113744       8.35290995      -6.26468246
Au     -10.44113744      10.44113744      -8.35290995
Au     -12.52936493       8.35290995      -4.17645498
Au     -12.52936493      10.44113744      -2.08822749
Au     -10.44113744       8.35290995      -2.08822749
Au     -10.44113744      10.44113744      -4.17645498
Au     -12.52936493       8.35290995       0.00000000
Au     -12.52936493      10.44113744       2.08822749
Au     -10.44113744       8.35290995       2.08822749
Au     -10.44113744      10.44113744       0.00000000
Au     -12.52936493       8.35290995       4.17645498
Au     -12.52936493      10.44113744       6.26468246
Au     -10.44113744       8.35290995       6.26468246
Au     -10.44113744      10.44113744       4.17645498
Au     -12.52936493       8.35290995       8.35290995
Au     -10.44113744       8.35290995      10.44113744
Au     -10.44113744      10.44113744       8.35290995
Au     -10.44113744      12.52936493      -6.26468246
Au     -12.52936493      12.52936493      -4.17645498
Au     -12.52936493      14.61759241      -2.08822749
Au     -10.44113744      12.52936493      -2.08822749
Au     -10.44113744      14.61759241      -4.17645498
Au     -12.52936493      12.52936493       0.00000000
Au     -12.52936493      14.61759241       2.08822749
Au     -10.44113744      12.52936493       2.08822749
Au     -10.44113744      14.61759241       0.00000000
Au     -12.52936493      12.52936493       4.17645498
Au     -10.44113744      12.52936493       6.26468246
Au     -10.44113744      14.61759241       4.17645498
Au     -10.44113744      16.70581990      -2.08822749
Au     -12.52936493      16.70581990       0.00000000
Au     -10.44113744      16.70581990       2.08822749
Au     -10.44113744      18.79404739       0.00000000
Au      -8.35290995     -18.79404739      -2.08822749
Au      -6.26468246     -20.88227488      -2.08822749
Au      -6.26468246     -18.79404739      -4.17645498
Au      -8.35290995     -20.88227488       0.00000000
Au      -8.35290995     -18.79404739       2.08822749
Au      -6.26468246     -20.88227488       2.08822749
Au      -6.26468246     -18.79404739       0.00000000
Au      -6.26468246     -18.79404739       4.17645498
Au      -8.35290995     -14.61759241      -6.26468246
Au      -6.26468246     -16.70581990      -6.26468246
Au      -6.26468246     -14.61759241      -8.35290995
Au      -8.35290995     -16.70581990      -4.17645498
Au      -8.35290995     -14.61759241      -2.08822749
Au      -6.26468246     -16.70581990      -2.08822749
Au      -6.26468246     -14.61759241      -4.17645498
Au      -8.35290995     -16.70581990       0.00000000
Au      -8.35290995     -14.61759241       2.08822749
Au      -6.26468246     -16.70581990       2.08822749
Au      -6.26468246     -14.61759241       0.00000000
Au      -8.35290995     -16.70581990       4.17645498
Au      -8.35290995     -14.61759241       6.26468246
Au      -6.26468246     -16.70581990       6.26468246
Au      -6.26468246     -14.61759241       4.17645498
Au      -6.26468246     -14.61759241       8.35290995
Au      -8.35290995     -10.44113744     -10.44113744
Au      -6.26468246     -12.52936493     -10.44113744
Au      -6.26468246     -10.44113744     -12.52936493
Au      -8.35290995     -12.52936493      -8.35290995
Au      -8.35290995     -10.44113744      -6.26468246
Au      -6.26468246     -12.52936493      -6.26468246
Au      -6.26468246     -10.44113744      -8.35290995
Au      -8.35290995     -12.52936493      -4.17645498
Au      -8.35290995     -10.44113744      -2.08822749
Au      -6.26468246     -12.52936493      -2.08822749
Au      -6.26468246     -10.44113744      -4.17645498
Au      -8.35290995     -12.52936493       0.00000000
Au      -8.35290995     -10.44113744       2.08822749
Au      -6.26468246     -12.52936493       2.08822749
Au      -6.26468246     -10.44113744       0.00000000
Au      -8.35290995     -12.52936493       4.17645498
Au      -8.35290995     -10.44113744       6.26468246
Au      -6.26468246     -12.52936493       6.26468246
Au      -6.26468246     -10.44113744       4.17645498
Au      -8.35290995     -12.52936493       8.35290995
Au      -8.35290995     -10.44113744      10.44113744
Au      -6.26468246     -12.52936493      10.44113744
Au      -6.26468246     -10.44113744       8.35290995
Au      -6.26468246     -10.44113744      12.52936493
Au      -8.35290995      -6.26468246     -14.61759241
Au      -6.26468246      -8.35290995     -14.61759241
Au      -6.26468246      -6.26468246     -16.70581990
Au      -8.35290995      -8.35290995     -12.52936493
Au      -8.35290995      -6.26468246     -10.44113744
Au      -6.26468246      -8.35290995     -10.44113744
Au      -6.26468246      -6.26468246     -12.52936493
Au      -8.35290995      -8.35290995      -8.35290995
Au      -8.35290995      -6.26468246      -6.26468246
Au      -6.26468246      -8.35290995      -6.26468246
Au      -6.26468246      -6.26468246      -8.35290995
Au      -8.35290995      -8.35290995      -4.17645498
Au      -8.35290995      -6.26468246      -2.08822749
Au      -6.26468246      -8.35290995      -2.08822749
Au      -6.26468246      -6.26468246      -4.17645498
Au      -8.35290995      -8.35290995       0.00000000
Au      -8.35290995      -6.26468246       2.08822749
Au      -6.26468246      -8.35290995       2.08822749
Au      -6.26468246      -6.26468246       0.00000000
Au      -8.35290995      -8.35290995       4.17645498
Au      -8.35290995      -6.26468246       6.26468246
Au      -6.26468246      -8.35290995       6.26468246
Au      -6.26468246      -6.26468246       4.17645498
Au      -8.35290995      -8.35290995       8.35290995
Au      -8.35290995      -6.26468246      10.44113744
Au      -6.26468246      -8.35290995      10.44113744
Au      -6.26468246      -6.26468246       8.35290995
Au      -8.35290995      -8.35290995      12.52936493
Au      -8.35290995      -6.26468246      14.61759241
Au      -6.26468246      -8.35290995      14.61759241
Au      -6.26468246      -6.26468246      12.52936493
Au      -6.26468246      -6.26468246      16.70581990
Au      -8.35290995      -2.08822749     -18.79404739
Au      -6.26468246      -4.17645498     -18.79404739
Au      -6.26468246      -2.08822749     -20.88227488
Au      -8.35290995      -4.17645498     -16.70581990
Au      -8.35290995      -2.08822749     -14.61759241
Au      -6.26468246      -4.17645498     -14.61759241
Au      -6.26468246      -2.08822749     -16.70581990
Au      -8.35290995      -4.17645498     -12.52936493
Au      -8.35290995      -2.08822749     -10.44113744
Au      -6.26468246      -4.17645498     -10.44113744
Au      -6.26468246      -2.08822749     -12.52936493
Au      -8.35290995      -4.17645498      -8.35290995
Au      -8.35290995      -2.08822749      -6.26468246
Au      -6.26468246      -4.17645498      -6.26468246
Au      -6.26468246      -2.08822749      -8.35290995
Au      -8.35290995      -4.17645498      -4.17645498
Au      -8.35290995      -2.08822749      -2.08822749
Au      -6.26468246      -4.17645498      -2.08822749
Au      -6.26468246      -2.08822749      -4.17645498
Au      -8.35290995      -4.17645498       0.00000000
Au      -8.35290995      -2.08822749       2.08822749
Au      -6.26468246      -4.17645498       2.08822749
Au      -6.26468246      -2.08822749       0.00000000
Au      -8.35290995      -4.17645498       4.17645498
Au      -8.35290995      -2.08822749       6.26468246
Au      -6.26468246      -4.17645498       6.26468246
Au      -6.26468246      -2.08822749       4.17645498
Au      -8.35290995      -4.17645498       8.35290995
Au      -8.35290995      -2.08822749      10.44113744
Au      -6.26468246      -4.17645498      10.44113744
Au      -6.26468246      -2.08822749       8.35290995
Au      -8.35290995      -4.17645498      12.52936493
Au      -8.35290995      -2.08822749      14.61759241
Au      -6.26468246      -4.17645498      14.61759241
Au      -6.26468246      -2.08822749      12.52936493
Au      -8.35290995      -4.17645498      16.70581990
Au      -8.35290995      -2.08822749      18.79404739
Au      -6.26468246      -4.17645498      18.79404739
Au      -6.26468246      -2.08822749      16.70581990
Au      -6.26468246      -2.08822749      20.88227488
Au      -8.35290995       0.00000000     -20.88227488
Au      -8.35290995       2.08822749     -18.79404739
Au      -6.26468246       0.00000000     -18.79404739
Au      -6.26468246       2.08822749     -20.88227488
Au      -8.35290995       0.00000000     -16.70581990
Au      -8.35290995       2.08822749     -14.61759241
Au      -6.26468246       0.00000000     -14.61759241
Au      -6.26468246       2.08822749     -16.70581990
Au      -8.35290995       0.00000000     -12.52936493
Au      -8.35290995       2.08822749     -10.44113744
Au      -6.26468246       0.00000000     -10.44113744
Au      -6.26468246       2.08822749     -12.52936493
Au      -8.35290995       0.00000000      -8.35290995
Au      -8.35290995       2.08822749      -6.26468246
Au      -6.26468246       0.00000000      -6.26468246
Au      -6.26468246       2.08822749      -8.35290995
Au      -8.35290995       0.00000000      -4.17645498
Au      -8.35290995       2.08822749      -2.08822749
Au      -6.26468246       0.00000000      -2.08822749
Au      -6.26468246       2.08822749      -4.17645498
Au      -8.35290995       0.00000000       0.00000000
Au      -8.35290995       2.08822749       2.08822749
Au      -6.26468246       0.00000000       2.08822749
Au      -6.26468246       2.08822749       0.00000000
Au      -8.35290995       0.00000000       4.17645498
Au      -8.35290995       2.08822749       6.26468246
Au      -6.26468246       0.00000000       6.26468246
Au      -6.26468246       2.08822749       4.17645498
Au      -8.35290995       0.00000000       8.35290995
Au      -8.35290995       2.08822749      10.44113744
Au      -6.26468246       0.00000000      10.44113744
Au      -6.26468246       2.08822749       8.35290995
Au      -8.35290995       0.00000000      12.52936493
Au      -8.35290995       2.08822749      14.61759241
Au      -6.26468246       0.00000000      14.61759241
Au      -6.26468246       2.08822749      12.52936493
Au      -8.35290995       0.00000000      16.70581990
Au      -8.35290995       2.08822749      18.79404739
Au      -6.26468246       0.00000000      18.79404739
Au      -6.26468246       2.08822749      16.70581990
Au      -8.35290995       0.00000000      20.88227488
Au      -6.26468246       2.08822749      20.88227488
Au      -6.26468246       4.17645498     -18.79404739
Au      -8.35290995       4.17645498     -16.70581990
Au      -8.35290995       6.26468246     -14.61759241
Au      -6.26468246       4.17645498     -14.61759241
Au      -6.26468246       6.26468246     -16.70581990
Au      -8.35290995       4.17645498     -12.52936493
Au      -8.35290995       6.26468246     -10.44113744
Au      -6.26468246       4.17645498     -10.44113744
Au      -6.26468246       6.26468246     -12.52936493
Au      -8.35290995       4.17645498      -8.35290995
Au      -8.35290995       6.26468246      -6.26468246
Au      -6.26468246       4.17645498      -6.26468246
Au      -6.26468246       6.26468246      -8.35290995
Au      -8.35290995       4.17645498      -4.17645498
Au      -8.35290995       6.26468246      -2.08822749
Au      -6.26468246       4.17645498      -2.08822749
Au      -6.26468246       6.26468246      -4.17645498
Au      -8.35290995       4.17645498       0.00000000
Au      -8.35290995       6.26468246       2.08822749
Au      -6.26468246       4.17645498       2.08822749
Au      -6.26468246       6.26468246       0.00000000
Au      -8.35290995       4.17645498       4.17645498
Au      -8.35290995       6.26468246       6.26468246
Au      -6.26468246       4.17645498       6.26468246
Au      -6.26468246       6.26468246       4.17645498
Au      -8.35290995       4.17645498       8.35290995
Au      -8.35290995       6.26468246      10.44113744
Au      -6.26468246       4.17645498      10.44113744
Au      -6.26468246       6.26468246       8.35290995
Au      -8.35290995       4.17645498      12.52936493
Au      -8.35290995       6.26468246      14.61759241
Au      -6.26468246       4.17645498      14.61759241
Au      -6.26468246       6.26468246      12.52936493
Au      -8.35290995       4.17645498      16.70581990
Au      -6.26468246       4.17645498      18.79404739
Au      -6.26468246       6.26468246      16.70581990
Au      -6.26468246       8.35290995     -14.61759241
Au      -8.35290995       8.35290995     -12.52936493
Au      -8.35290995      10.44113744     -10.44113744
Au      -6.26468246       8.35290995     -10.44113744
Au      -6.26468246      10.44113744     -12.52936493
Au      -8.35290995       8.35290995      -8.35290995
Au      -8.35290995      10.44113744      -6.26468246
Au      -6.26468246       8.35290995      -6.26468246
Au      -6.26468246      10.44113744      -8.35290995
Au      -8.35290995       8.35290995      -4.17645498
Au      -8.35290995      10.44113744      -2.08822749
Au      -6.26468246       8.35290995      -2.08822749
Au      -6.26468246      10.44113744      -4.17645498
Au      -8.35290995       8.35290995       0.00000000
Au      -8.35290995      10.44113744       2.08822749
Au      -6.26468246       8.35290995       2.08822749
Au      -6.26468246      10.44113744       0.00000000
Au      -8.35290995       8.35290995       4.17645498
Au      -8.35290995      10.44113744       6.26468246
Au      -6.26468246       8.35290995       6.26468246
Au      -6.26468246      10.44113744       4.17645498
Au      -8.35290995       8.35290995       8.35290995
Au      -8.35290995      10.44113744      10.44113744
Au      -6.26468246       8.35290995      10.44113744
Au      -6.26468246      10.44113744       8.35290995
Au      -8.35290995       8.35290995      12.52936493
Au      -6.26468246       8.35290995      14.61759241
Au      -6.26468246      10.44113744      12.52936493
Au      -6.26468246      12.52936493     -10.44113744
Au      -8.35290995      12.52936493      -8.35290995
Au      -8.35290995      14.61759241      -6.26468246
Au      -6.26468246      12.52936493      -6.26468246
Au      -6.26468246      14.61759241      -8.35290995
Au      -8.35290995      12.52936493      -4.17645498
Au      -8.35290995      14.61759241      -2.08822749
Au      -6.26468246      12.52936493      -2.08822749
Au      -6.26468246      14.61759241      -4.17645498
Au      -8.35290995      12.52936493       0.00000000
Au      -8.35290995      14.61759241       2.08822749
Au      -6.26468246      12.52936493       2.08822749
Au      -6.26468246      14.61759241       0.00000000
Au      -8.35290995      12.52936493       4.17645498
Au      -8.35290995      14.61759241       6.26468246
Au      -6.26468246      12.52936493       6.26468246
Au      -6.26468246      14.61759241       4.17645498
Au      -8.35290995      12.52936493       8.35290995
Au      -6.26468246      12.52936493      10.44113744
Au      -6.26468246      14.61759241       8.35290995
Au      -6.26468246      16.70581990      -6.26468246
Au      -8.35290995      16.70581990      -4.17645498
Au      -8.35290995      18.79404739      -2.08822749
Au      -6.26468246      16.70581990      -2.08822749
Au      -6.26468246      18.79404739      -4.17645498
Au      -8.35290995      16.70581990       0.00000000
Au      -8.35290995      18.79404739       2.08822749
Au      -6.26468246      16.70581990       2.08822749
Au      -6.26468246      18.79404739       0.00000000
Au      -8.35290995      16.70581990       4.17645498
Au      -6.26468246      16.70581990       6.26468246
Au      -6.26468246      18.79404739       4.17645498
Au      -6.26468246      20.88227488      -2.08822749
Au      -8.35290995      20.88227488       0.00000000
Au      -6.26468246      20.88227488       2.08822749
Au      -4.17645498     -18.79404739      -6.26468246
Au      -2.08822749     -20.88227488      -6.26468246
Au      -2.08822749     -18.79404739      -8.35290995
Au      -4.17645498     -20.88227488      -4.17645498
Au      -4.17645498     -18.79404739      -2.08822749
Au      -2.08822749     -20.88227488      -2.08822749
Au      -2.08822749     -18.79404739      -4.17645498
Au      -4.17645498     -20.88227488       0.00000000
Au      -4.17645498     -18.79404739       2.08822749
Au      -2.08822749     -20.88227488       2.08822749
Au      -2.08822749     -18.79404739       0.00000000
Au      -4.17645498     -20.88227488       4.17645498
Au      -4.17645498     -18.79404739       6.26468246
Au      -2.08822749     -20.88227488       6.26468246
Au      -2.08822749     -18.79404739       4.17645498
Au      -2.08822749     -18.79404739       8.35290995
Au      -4.17645498     -14.61759241     -10.44113744
Au      -2.08822749     -16.70581990     -10.44113744
Au      -2.08822749     -14.61759241     -12.52936493
Au      -4.17645498     -16.70581990      -8.35290995
Au      -4.17645498     -14.61759241      -6.26468246
Au      -2.08822749     -16.70581990      -6.26468246
Au      -2.08822749     -14.61759241      -8.35290995
Au      -4.17645498     -16.70581990      -4.17645498
Au      -4.17645498     -14.61759241      -2.08822749
Au      -2.08822749     -16.70581990      -2.08822749
Au      -2.08822749     -14.61759241      -4.17645498
Au      -4.17645498     -16.70581990       0.00000000
Au      -4.17645498     -14.61759241       2.08822749
Au      -2.08822749     -16.70581990       2.08822749
Au      -2.08822749     -14.61759241       0.00000000
Au      -4.17645498     -16.70581990       4.17645498
Au      -4.17645498     -14.61759241       6.26468246
Au      -2.08822749     -16.70581990       6.26468246
Au      -2.08822749     -14.61759241       4.17645498
Au      -4.17645498     -16.70581990       8.35290995
Au      -4.17645498     -14.61759241      10.44113744
Au      -2.08822749     -16.70581990      10.44113744
Au      -2.08822749     -14.61759241       8.35290995
Au      -2.08822749     -14.61759241      12.52936493
Au      -4.17645498     -10.44113744     -14.61759241
Au      -2.08822749     -12.52936493     -14.61759241
Au      -2.08822749     -10.44113744     -16.70581990
Au      -4.17645498     -12.52936493     -12.52936493
Au      -4.17645498     -10.44113744     -10.44113744
Au      -2.08822749     -12.52936493     -10.44113744
Au      -2.08822749     -10.44113744     -12.52936493
Au      -4.17645498     -12.52936493      -8.35290995
Au      -4.17645498     -10.44113744      -6.26468246
Au      -2.08822749     -12.52936493      -6.26468246
Au      -2.08822749     -10.44113744      -8.35290995
Au      -4.17645498     -12.52936493      -4.17645498
Au      -4.17645498     -10.44113744      -2.08822749
Au      -2.08822749     -12.52936493      -2.08822749
Au      -2.08822749     -10.44113744      -4.17645498
Au      -4.17645498     -12.52936493       0.00000000
Au      -4.17645498     -10.44113744       2.08822749
Au      -2.08822749     -12.52936493       2.08822749
Au      -2.08822749     -10.44113744       0.00000000
Au      -4.17645498     -12.52936493       4.17645498
Au      -4.17645498     -10.44113744       6.26468246
Au      -2.08822749     -12.52936493       6.26468246
Au      -2.08822749     -10.44113744       4.17645498
Au      -4.17645498     -12.52936493       8.35290995
Au      -4.17645498     -10.44113744      10.44113744
Au      -2.08822749     -12.52936493      10.44113744
Au      -2.08822749     -10.44113744       8.35290995
Au      -4.17645498     -12.52936493      12.52936493
Au      -4.17645498     -10.44113744      14.61759241
Au      -2.08822749     -12.52936493      14.61759241
Au      -2.08822749     -10.44113744      12.52936493
Au      -2.08822749     -10.44113744      16.70581990
Au      -4.17645498      -6.26468246     -18.79404739
Au      -2.08822749      -8.35290995     -18.79404739
Au      -2.08822749      -6.26468246     -20.88227488
Au      -4.17645498      -8.35290995     -16.70581990
Au      -4.17645498      -6.26468246     -14.61759241
Au      -2.08822749      -8.35290995     -14.61759241
Au      -2.08822749      -6.26468246     -16.70581990
Au      -4.17645498      -8.35290995     -12.52936493
Au      -4.17645498      -6.26468246     -10.44113744
Au      -2.08822749      -8.35290995     -10.44113744
Au      -2.08822749      -6.26468246     -12.52936493
Au      -4.17645498      -8.35290995      -8.35290995
Au      -4.17645498      -6.26468246      -6.26468246
Au      -2.08822749      -8.35290995      -6.26468246
Au      -2.08822749      -6.26468246      -8.35290995
Au      -4.17645498      -8.35290995      -4.17645498
Au      -4.17645498      -6.26468246      -2.08822749
Au      -2.08822749      -8.35290995      -2.08822749
Au      -2.08822749      -6.26468246      -4.17645498
Au      -4.17645498      -8.35290995       0.00000000
Au      -4.17645498      -6.26468246       2.08822749
Au      -2.08822749      -8.35290995       2.08822749
Au      -2.08822749      -6.26468246       0.00000000
Au      -4.17645498      -8.35290995       4.17645498
Au      -4.17645498      -6.26468246       6.26468246
Au      -2.08822749      -8.35290995       6.26468246
Au      -2.08822749      -6.26468246       4.17645498
Au      -4.17645498      -8.35290995       8.35290995
Au      -4.17645498      -6.26468246      10.44113744
Au      -2.08822749      -8.35290995      10.44113744
Au      -2.08822749      -6.26468246       8.35290995
Au      -4.17645498      -8.35290995      12.52936493
Au      -4.17645498      -6.26468246      14.61759241
Au      -2.08822749      -8.35290995      14.61759241
Au      -2.08822749      -6.26468246      12.52936493
Au      -4.17645498      -8.35290995      16.70581990
Au      -4.17645498      -6.26468246      18.79404739
Au      -2.08822749      -8.35290995      18.79404739
Au      -2.08822749      -6.26468246      16.70581990
Au      -2.08822749      -6.26468246      20.88227488
Au      -4.17645498      -4.17645498     -20.88227488
Au      -4.17645498      -2.08822749     -18.79404739
Au      -2.08822749      -4.17645498     -18.79404739
Au      -2.08822749      -2.08822749     -20.88227488
Au      -4.17645498      -4.17645498     -16.70581990
Au      -4.17645498      -2.08822749     -14.61759241
Au      -2.08822749      -4.17645498     -14.61759241
Au      -2.08822749      -2.08822749     -16.70581990
Au      -4.17645498      -4.17645498     -12.52936493
Au      -4.17645498      -2.08822749     -10.44113744
Au      -2.08822749      -4.17645498     -10.44113744
Au      -2.08822749      -2.08822749     -12.52936493
Au      -4.17645498      -4.17645498      -8.35290995
Au      -4.17645498      -2.08822749      -6.26468246
Au      -2.08822749      -4.17645498      -6.26468246
Au      -2.08822749      -2.08822749      -8.35290995
Au      -4.17645498      -4.17645498      -4.17645498
Au      -4.17645498      -2.08822749      -2.08822749
Au      -2.08822749      -4.17645498      -2.08822749
Au      -2.08822749      -2.08822749      -4.17645498
Au      -4.17645498      -4.17645498       0.00000000
Au      -4.17645498      -2.08822749       2.08822749
Au      -2.08822749      -4.17645498       2.08822749
Au      -2.08822749      -2.08822749       0.00000000
Au      -4.17645498      -4.17645498       4.17645498
Au      -4.17645498      -2.08822749       6.26468246
Au      -2.08822749      -4.17645498       6.26468246
Au      -2.08822749      -2.08822749       4.17645498
Au      -4.17645498      -4.17645498       8.35290995
Au      -4.17645498      -2.08822749      10.44113744
Au      -2.08822749      -4.17645498      10.44113744
Au      -2.08822749      -2.08822749       8.35290995
Au      -4.17645498      -4.17645498      12.52936493
Au      -4.17645498      -2.08822749      14.61759241
Au      -2.08822749      -4.17645498      14.61759241
Au      -2.08822749      -2.08822749      12.52936493
Au      -4.17645498      -4.17645498      16.70581990
Au      -4.17645498      -2.08822749      18.79404739
Au      -2.08822749      -4.17645498      18.79404739
Au      -2.08822749      -2.08822749      16.70581990
Au      -4.17645498      -4.17645498      20.88227488
Au      -2.08822749      -2.08822749      20.88227488
Au      -4.17645498       0.00000000     -20.88227488
Au      -4.17645498       2.08822749     -18.79404739
Au      -2.08822749       0.00000000     -18.79404739
Au      -2.08822749       2.08822749     -20.88227488
Au      -4.17645498       0.00000000     -16.70581990
Au      -4.17645498       2.08822749     -14.61759241
Au      -2.08822749       0.00000000     -14.61759241
Au      -2.08822749       2.08822749     -16.70581990
Au      -4.17645498       0.00000000     -12.52936493
Au      -4.17645498       2.08822749     -10.44113744
Au      -2.08822749       0.00000000     -10.44113744
Au      -2.08822749       2.08822749     -12.52936493
Au      -4.17645498       0.00000000      -8.35290995
Au      -4.17645498       2.08822749      -6.26468246
Au      -2.08822749       0.00000000      -6.26468246
Au      -2.08822749       2.08822749      -8.35290995
Au      -4.17645498       0.00000000      -4.17645498
Au      -4.17645498       2.08822749      -2.08822749
Au      -2.08822749       0.00000000      -2.08822749
Au      -2.08822749       2.08822749      -4.17645498
Au      -4.17645498       0.00000000       0.00000000
Au      -4.17645498       2.08822749       2.08822749
Au      -2.08822749       0.00000000       2.08822749
Au      -2.08822749       2.08822749       0.00000000
Au      -4.17645498       0.00000000       4.17645498
Au      -4.17645498       2.08822749       6.26468246
Au      -2.08822749       0.00000000       6.26468246
Au      -2.08822749       2.08822749       4.17645498
Au      -4.17645498       0.00000000       8.35290995
Au      -4.17645498       2.08822749      10.44113744
Au      -2.08822749       0.00000000      10.44113744
Au      -2.08822749       2.08822749       8.35290995
Au      -4.17645498       0.00000000      12.52936493
Au      -4.17645498       2.08822749      14.61759241
Au      -2.08822749       0.00000000      14.61759241
Au      -2.08822749       2.08822749      12.52936493
Au      -4.17645498       0.00000000      16.70581990
Au      -4.17645498       2.08822749      18.79404739
Au      -2.08822749       0.00000000      18.79404739
Au      -2.08822749       2.08822749      16.70581990
Au      -4.17645498       0.00000000      20.88227488
Au      -2.08822749       2.08822749      20.88227488
Au      -4.17645498       4.17645498     -20.88227488
Au      -4.17645498       6.26468246     -18.79404739
Au      -2.08822749       4.17645498     -18.79404739
Au      -2.08822749       6.26468246     -20.88227488
Au      -4.17645498       4.17645498     -16.70581990
Au      -4.17645498       6.26468246     -14.61759241
Au      -2.08822749       4.17645498     -14.61759241
Au      -2.08822749       6.26468246     -16.70581990
Au      -4.17645498       4.17645498     -12.52936493
Au      -4.17645498       6.26468246     -10.44113744
Au      -2.08822749       4.17645498     -10.44113744
Au      -2.08822749       6.26468246     -12.52936493
Au      -4.17645498       4.17645498      -8.35290995
Au      -4.17645498       6.26468246      -6.26468246
Au      -2.08822749       4.17645498      -6.26468246
Au      -2.08822749       6.26468246      -8.35290995
Au      -4.17645498       4.17645498      -4.17645498
Au      -4.17645498       6.26468246      -2.08822749
Au      -2.08822749       4.17645498      -2.08822749
Au      -2.08822749       6.26468246      -4.17645498
Au      -4.17645498       4.17645498       0.00000000
Au      -4.17645498       6.26468246       2.08822749
Au      -2.08822749       4.17645498       2.08822749
Au      -2.08822749       6.26468246       0.00000000
Au      -4.17645498       4.17645498       4.17645498
Au      -4.17645498       6.26468246       6.26468246
Au      -2.08822749       4.17645498       6.26468246
Au      -2.08822749       6.26468246       4.17645498
Au      -4.17645498       4.17645498       8.35290995
Au      -4.17645498       6.26468246      10.44113744
Au      -2.08822749       4.17645498      10.44113744
Au      -2.08822749       6.26468246       8.35290995
Au      -4.17645498       4.17645498      12.52936493
Au      -4.17645498       6.26468246      14.61759241
Au      -2.08822749       4.17645498      14.61759241
Au      -2.08822749       6.26468246      12.52936493
Au      -4.17645498       4.17645498      16.70581990
Au      -4.17645498       6.26468246      18.79404739
Au      -2.08822749       4.17645498      18.79404739
Au      -2.08822749       6.26468246      16.70581990
Au      -4.17645498       4.17645498      20.88227488
Au      -2.08822749       6.26468246      20.88227488
Au      -2.08822749       8.35290995     -18.79404739
Au      -4.17645498       8.35290995     -16.70581990
Au      -4.17645498      10.44113744     -14.61759241
Au      -2.08822749       8.35290995     -14.61759241
Au      -2.08822749      10.44113744     -16.70581990
Au      -4.17645498       8.35290995     -12.52936493
Au      -4.17645498      10.44113744     -10.44113744
Au      -2.08822749       8.35290995     -10.44113744
Au      -2.08822749      10.44113744     -12.52936493
Au      -4.17645498       8.35290995      -8.35290995
Au      -4.17645498      10.44113744      -6.26468246
Au      -2.08822749       8.35290995      -6.26468246
Au      -2.08822749      10.44113744      -8.35290995
Au      -4.17645498       8.35290995      -4.17645498
Au      -4.17645498      10.44113744      -2.08822749
Au      -2.08822749       8.35290995      -2.08822749
Au      -2.08822749      10.44113744      -4.17645498
Au      -4.17645498       8.35290995       0.00000000
Au      -4.17645498      10.44113744       2.08822749
Au      -2.08822749       8.35290995       2.08822749
Au      -2.08822749      10.44113744       0.00000000
Au      -4.17645498       8.35290995       4.17645498
Au      -4.17645498      10.44113744       6.26468246
Au      -2.08822749       8.35290995       6.26468246
Au      -2.08822749      10.44113744       4.17645498
Au      -4.17645498       8.35290995       8.35290995
Au      -4.17645498      10.44113744      10.44113744
Au      -2.08822749       8.35290995      10.44113744
Au      -2.08822749      10.44113744       8.35290995
Au      -4.17645498       8.35290995      12.52936493
Au      -4.17645498      10.44113744      14.61759241
Au      -2.08822749       8.35290995      14.61759241
Au      -2.08822749      10.44113744      12.52936493
Au      -4.17645498       8.35290995      16.70581990
Au      -2.08822749       8.35290995      18.79404739
Au      -2.08822749      10.44113744      16.70581990
Au      -2.08822749      12.52936493     -14.61759241
Au      -4.17645498      12.52936493     -12.52936493
Au      -4.17645498      14.61759241     -10.44113744
Au      -2.08822749      12.52936493     -10.44113744
Au      -2.08822749      14.61759241     -12.52936493
Au      -4.17645498      12.52936493      -8.35290995
Au      -4.17645498      14.61759241      -6.26468246
Au      -2.08822749      12.52936493      -6.26468246
Au      -2.08822749      14.61759241      -8.35290995
Au      -4.17645498      12.52936493      -4.17645498
Au      -4.17645498      14.61759241      -2.08822749
Au      -2.08822749      12.52936493      -2.08822749
Au      -2.08822749      14.61759241      -4.17645498
Au      -4.17645498      12.52936493       0.00000000
Au      -4.17645498      14.61759241       2.08822749
Au      -2.08822749      12.52936493       2.08822749
Au      -2.08822749      14.61759241       0.00000000
Au      -4.17645498      12.52936493       4.17645498
Au      -4.17645498      14.61759241       6.26468246
Au      -2.08822749      12.52936493       6.26468246
Au      -2.08822749      14.61759241       4.17645498
Au      -4.17645498      12.52936493       8.35290995
Au      -4.17645498      14.61759241      10.44113744
Au      -2.08822749      12.52936493      10.44113744
Au      -2.08822749      14.61759241       8.35290995
Au      -4.17645498      12.52936493      12.52936493
Au      -2.08822749      12.52936493      14.61759241
Au      -2.08822749      14.61759241      12.52936493
Au      -2.08822749      16.70581990     -10.44113744
Au      -4.17645498      16.70581990      -8.35290995
Au      -4.17645498      18.79404739      -6.26468246
Au      -2.08822749      16.70581990      -6.26468246
Au      -2.08822749      18.79404739      -8.35290995
Au      -4.17645498      16.70581990      -4.17645498
Au      -4.17645498      18.79404739      -2.08822749
Au      -2.08822749      16.70581990      -2.08822749
Au      -2.08822749      18.79404739      -4.17645498
Au      -4.17645498      16.70581990       0.00000000
Au      -4.17645498      18.79404739       2.08822749
Au      -2.08822749      16.70581990       2.08822749
Au      -2.08822749      18.79404739       0.00000000
Au      -4.17645498      16.70581990       4.17645498
Au      -4.17645498      18.79404739       6.26468246
Au      -2.08822749      16.70581990       6.26468246
Au      -2.08822749      18.79404739       4.17645498
Au      -4.17645498      16.70581990       8.35290995
Au      -2.08822749      16.70581990      10.44113744
Au      -2.08822749      18.79404739       8.35290995
Au      -2.08822749      20.88227488      -6.26468246
Au      -4.17645498      20.88227488      -4.17645498
Au      -2.08822749      20.88227488      -2.08822749
Au      -4.17645498      20.88227488       0.00000000
Au      -2.08822749      20.88227488       2.08822749
Au      -4.17645498      20.88227488       4.17645498
Au      -2.08822749      20.88227488       6.26468246
Au       0.00000000     -18.79404739     -10.44113744
Au       0.00000000     -20.88227488      -8.35290995
Au       0.00000000     -18.79404739      -6.26468246
Au       2.08822749     -20.88227488      -6.26468246
Au       2.08822749     -18.79404739      -8.35290995
Au       0.00000000     -20.88227488      -4.17645498
Au       0.00000000     -18.79404739      -2.08822749
Au       2.08822749     -20.88227488      -2.08822749
Au       2.08822749     -18.79404739      -4.17645498
Au       0.00000000     -20.88227488       0.00000000
Au       0.00000000     -18.79404739       2.08822749
Au       2.08822749     -20.88227488       2.08822749
Au       2.08822749     -18.79404739       0.00000000
Au       0.00000000     -20.88227488       4.17645498
Au       0.00000000     -18.79404739       6.26468246
Au       2.08822749     -20.88227488       6.26468246
Au       2.08822749     -18.79404739       4.17645498
Au       0.00000000     -20.88227488       8.35290995
Au       0.00000000     -18.79404739      10.44113744
Au       2.08822749     -18.79404739       8.35290995
Au       0.00000000     -14.61759241     -14.61759241
Au       0.00000000     -16.70581990     -12.52936493
Au       0.00000000     -14.61759241     -10.44113744
Au       2.08822749     -16.70581990     -10.44113744
Au       2.08822749     -14.61759241     -12.52936493
Au       0.00000000     -16.70581990      -8.35290995
Au       0.00000000     -14.61759241      -6.26468246
Au       2.08822749     -16.70581990      -6.26468246
Au       2.08822749     -14.61759241      -8.35290995
Au       0.00000000     -16.70581990      -4.17645498
Au       0.00000000     -14.61759241      -2.08822749
Au       2.08822749     -16.70581990      -2.08822749
Au       2.08822749     -14.61759241      -4.17645498
Au       0.00000000     -16.70581990       0.00000000
Au       0.00000000     -14.61759241       2.08822749
Au       2.08822749     -16.70581990       2.08822749
Au       2.08822749     -14.61759241       0.00000000
Au       0.00000000     -16.70581990       4.17645498
Au       0.00000000     -14.61759241       6.26468246
Au       2.08822749     -16.70581990       6.26468246
Au       2.08822749     -14.61759241       4.17645498
Au       0.00000000     -16.70581990       8.35290995
Au       0.00000000     -14.61759241      10.44113744
Au       2.08822749     -16.70581990      10.44113744
Au       2.08822749     -14.61759241       8.35290995
Au       0.00000000     -16.70581990      12.52936493
Au       0.00000000     -14.61759241      14.61759241
Au       2.08822749     -14.61759241      12.52936493
Au       0.00000000     -10.44113744     -18.79404739
Au       0.00000000     -12.52936493     -16.70581990
Au       0.00000000     -10.44113744     -14.61759241
Au       2.08822749     -12.52936493     -14.61759241
Au       2.08822749     -10.44113744     -16.70581990
Au       0.00000000     -12.52936493     -12.52936493
Au       0.00000000     -10.44113744     -10.44113744
Au       2.08822749     -12.52936493     -10.44113744
Au       2.08822749     -10.44113744     -12.52936493
Au       0.00000000     -12.52936493      -8.35290995
Au       0.00000000     -10.44113744      -6.26468246
Au       2.08822749     -12.52936493      -6.26468246
Au       2.08822749     -10.44113744      -8.35290995
Au       0.00000000     -12.52936493      -4.17645498
Au       0.00000000     -10.44113744      -2.08822749
Au       2.08822749     -12.52936493      -2.08822749
Au       2.08822749     -10.44113744      -4.17645498
Au       0.00000000     -12.52936493       0.00000000
Au       0.00000000     -10.44113744       2.08822749
Au       2.08822749     -12.52936493       2.08822749
Au       2.08822749     -10.44113744       0.00000000
Au       0.00000000     -12.52936493       4.17645498
Au       0.00000000     -10.44113744       6.26468246
Au       2.08822749     -12.52936493       6.26468246
Au       2.08822749     -10.44113744       4.17645498
Au       0.00000000     -12.52936493       8.35290995
Au       0.00000000     -10.44113744      10.44113744
Au       2.08822749     -12.52936493      10.44113744
Au       2.08822749     -10.44113744       8.35290995
Au       0.00000000     -12.52936493      12.52936493
Au       0.00000000     -10.44113744      14.61759241
Au       2.08822749     -12.52936493      14.61759241
Au       2.08822749     -10.44113744      12.52936493
Au       0.00000000     -12.52936493      16.70581990
Au       0.00000000     -10.44113744      18.79404739
Au       2.08822749     -10.44113744      16.70581990
Au       0.00000000      -8.35290995     -20.88227488
Au       0.00000000      -6.26468246     -18.79404739
Au       2.08822749      -8.35290995     -18.79404739
Au       2.08822749      -6.26468246     -20.88227488
Au       0.00000000      -8.35290995     -16.70581990
Au       0.00000000      -6.26468246     -14.61759241
Au       2.08822749      -8.35290995     -14.61759241
Au       2.08822749      -6.26468246     -16.70581990
Au       0.00000000      -8.35290995     -12.52936493
Au       0.00000000      -6.26468246     -10.44113744
Au       2.08822749      -8.35290995     -10.44113744
Au       2.08822749      -6.26468246     -12.52936493
Au       0.00000000      -8.35290995      -8.35290995
Au       0.00000000      -6.26468246      -6.26468246
Au       2.08822749      -8.35290995      -6.26468246
Au       2.08822749      -6.26468246      -8.35290995
Au       0.00000000      -8.35290995      -4.17645498
Au       0.00000000      -6.26468246      -2.08822749
Au       2.08822749      -8.35290995      -2.08822749
Au       2.08822749      -6.26468246      -4.17645498
Au       0.00000000      -8.35290995       0.00000000
Au       0.00000000      -6.26468246       2.08822749
Au       2.08822749      -8.35290995       2.08822749
Au       2.08822749      -6.26468246       0.00000000
Au       0.00000000      -8.35290995       4.17645498
Au       0.00000000      -6.26468246       6.26468246
Au       2.08822749      -8.35290995       6.26468246
Au       2.08822749      -6.26468246       4.17645498
Au       0.00000000      -8.35290995       8.35290995
Au       0.00000000      -6.26468246      10.44113744
Au       2.08822749      -8.35290995      10.44113744
Au       2.08822749      -6.26468246       8.35290995
Au       0.00000000      -8.35290995      12.52936493
Au       0.00000000      -6.26468246      14.61759241
Au       2.08822749      -8.35290995      14.61759241
Au       2.08822749      -6.26468246      12.52936493
Au       0.00000000      -8.35290995      16.70581990
Au       0.00000000      -6.26468246      18.79404739
Au       2.08822749      -8.35290995      18.79404739
Au       2.08822749      -6.26468246      16.70581990
Au       0.00000000      -8.35290995      20.88227488
Au       2.08822749      -6.26468246      20.88227488
Au       0.00000000      -4.17645498     -20.88227488
Au       0.00000000      -2.08822749     -18.79404739
Au       2.08822749      -4.17645498     -18.79404739
Au       2.08822749      -2.08822749     -20.88227488
Au       0.00000000      -4.17645498     -16.70581990
Au       0.00000000      -2.08822749     -14.61759241
Au       2.08822749      -4.17645498     -14.61759241
Au       2.08822749      -2.08822749     -16.70581990
Au       0.00000000      -4.17645498     -12.52936493
Au       0.00000000      -2.08822749     -10.44113744
Au       2.08822749      -4.17645498     -10.44113744
Au       2.08822749      -2.08822749     -12.52936493
Au       0.00000000      -4.17645498      -8.35290995
Au       0.00000000      -2.08822749      -6.26468246
Au       2.08822749      -4.17645498      -6.26468246
Au       2.08822749      -2.08822749      -8.35290995
Au       0.00000000      -4.17645498      -4.17645498
Au       0.00000000      -2.08822749      -2.08822749
Au       2.08822749      -4.17645498      -2.08822749
Au       2.08822749      -2.08822749      -4.17645498
Au       0.00000000      -4.17645498       0.00000000
Au       0.00000000      -2.08822749       2.08822749
Au       2.08822749      -4.17645498       2.08822749
Au       2.08822749      -2.08822749       0.00000000
Au       0.00000000      -4.17645498       4.17645498
Au       0.00000000      -2.08822749       6.26468246
Au       2.08822749      -4.17645498       6.26468246
Au       2.08822749      -2.08822749       4.17645498
Au       0.00000000      -4.17645498       8.35290995
Au       0.00000000      -2.08822749      10.44113744
Au       2.08822749      -4.17645498      10.44113744
Au       2.08822749      -2.08822749       8.35290995
Au       0.00000000      -4.17645498      12.52936493
Au       0.00000000      -2.08822749      14.61759241
Au       2.08822749      -4.17645498      14.61759241
Au       2.08822749      -2.08822749      12.52936493
Au       0.00000000      -4.17645498      16.70581990
Au       0.00000000      -2.08822749      18.79404739
Au       2.08822749      -4.17645498      18.79404739
Au       2.08822749      -2.08822749      16.70581990
Au       0.00000000      -4.17645498      20.88227488
Au       2.08822749      -2.08822749      20.88227488
Au       0.00000000       0.00000000     -20.88227488
Au       0.00000000       2.08822749     -18.79404739
Au       2.08822749       0.00000000     -18.79404739
Au       2.08822749       2.08822749     -20.88227488
Au       0.00000000       0.00000000     -16.70581990
Au       0.00000000       2.08822749     -14.61759241
Au       2.08822749       0.00000000     -14.61759241
Au       2.08822749       2.08822749     -16.70581990
Au       0.00000000       0.00000000     -12.52936493
Au       0.00000000       2.08822749     -10.44113744
Au       2.08822749       0.00000000     -10.44113744
Au       2.08822749       2.08822749     -12.52936493
Au       0.00000000       0.00000000      -8.35290995
Au       0.00000000       2.08822749      -6.26468246
Au       2.08822749       0.00000000      -6.26468246
Au       2.08822749       2.08822749      -8.35290995
Au       0.00000000       0.00000000      -4.17645498
Au       0.00000000       2.08822749      -2.08822749
Au       2.08822749       0.00000000      -2.08822749
Au       2.08822749       2.08822749      -4.17645498
Au       0.00000000       0.00000000       0.00000000
Au       0.00000000       2.08822749       2.08822749
Au       2.08822749       0.00000000       2.08822749
Au       2.08822749       2.08822749       0.00000000
Au       0.00000000       0.00000000       4.17645498
Au       0.00000000       2.08822749       6.26468246
Au       2.08822749       0.00000000       6.26468246
Au       2.08822749       2.08822749       4.17645498
Au       0.00000000       0.00000000       8.35290995
Au       0.00000000       2.08822749      10.44113744
Au       2.08822749       0.00000000      10.44113744
Au       2.08822749       2.08822749       8.35290995
Au       0.00000000       0.00000000      12.52936493
Au       0.00000000       2.08822749      14.61759241
Au       2.08822749       0.00000000      14.61759241
Au       2.08822749       2.08822749      12.52936493
Au       0.00000000       0.00000000      16.70581990
Au       0.00000000       2.08822749      18.79404739
Au       2.08822749       0.00000000      18.79404739
Au       2.08822749       2.08822749      16.70581990
Au       0.00000000       0.00000000      20.88227488
Au       2.08822749       2.08822749      20.88227488
Au       0.00000000       4.17645498     -20.88227488
Au       0.00000000       6.26468246     -18.79404739
Au       2.08822749       4.17645498     -18.79404739
Au       2.08822749       6.26468246     -20.88227488
Au       0.00000000       4.17645498     -16.70581990
Au       0.00000000       6.26468246     -14.61759241
Au       2.08822749       4.17645498     -14.61759241
Au       2.08822749       6.26468246     -16.70581990
Au       0.00000000       4.17645498     -12.52936493
Au       0.00000000       6.26468246     -10.44113744
Au       2.08822749       4.17645498     -10.44113744
Au       2.08822749       6.26468246     -12.52936493
Au       0.00000000       4.17645498      -8.35290995
Au       0.00000000       6.26468246      -6.26468246
Au       2.08822749       4.17645498      -6.26468246
Au       2.08822749       6.26468246      -8.35290995
Au       0.00000000       4.17645498      -4.17645498
Au       0.00000000       6.26468246      -2.08822749
Au       2.08822749       4.17645498      -2.08822749
Au       2.08822749       6.26468246      -4.17645498
Au       0.00000000       4.17645498       0.00000000
Au       0.00000000       6.26468246       2.08822749
Au       2.08822749       4.17645498       2.08822749
Au       2.08822749       6.26468246       0.00000000
Au       0.00000000       4.17645498       4.17645498
Au       0.00000000       6.26468246       6.26468246
Au       2.08822749       4.17645498       6.26468246
Au       2.08822749       6.26468246       4.17645498
Au       0.00000000       4.17645498       8.35290995
Au       0.00000000       6.26468246      10.44113744
Au       2.08822749       4.17645498      10.44113744
Au       2.08822749       6.26468246       8.35290995
Au       0.00000000       4.17645498      12.52936493
Au       0.00000000       6.26468246      14.61759241
Au       2.08822749       4.17645498      14.61759241
Au       2.08822749       6.26468246      12.52936493
Au       0.00000000       4.17645498      16.70581990
Au       0.00000000       6.26468246      18.79404739
Au       2.08822749       4.17645498      18.79404739
Au       2.08822749       6.26468246      16.70581990
Au       0.00000000       4.17645498      20.88227488
Au       2.08822749       6.26468246      20.88227488
Au       0.00000000       8.35290995     -20.88227488
Au       0.00000000      10.44113744     -18.79404739
Au       2.08822749       8.35290995     -18.79404739
Au       0.00000000       8.35290995     -16.70581990
Au       0.00000000      10.44113744     -14.61759241
Au       2.08822749       8.35290995     -14.61759241
Au       2.08822749      10.44113744     -16.70581990
Au       0.00000000       8.35290995     -12.52936493
Au       0.00000000      10.44113744     -10.44113744
Au       2.08822749       8.35290995     -10.44113744
Au       2.08822749      10.44113744     -12.52936493
Au       0.00000000       8.35290995      -8.35290995
Au       0.00000000      10.44113744      -6.26468246
Au       2.08822749       8.35290995      -6.26468246
Au       2.08822749      10.44113744      -8.35290995
Au       0.00000000       8.35290995      -4.17645498
Au       0.00000000      10.44113744      -2.08822749
Au       2.08822749       8.35290995      -2.08822749
Au       2.08822749      10.44113744      -4.17645498
Au       0.00000000       8.35290995       0.00000000
Au       0.00000000      10.44113744       2.08822749
Au       2.08822749       8.35290995       2.08822749
Au       2.08822749      10.44113744       0.00000000
Au       0.00000000       8.35290995       4.17645498
Au       0.00000000      10.44113744       6.26468246
Au       2.08822749       8.35290995       6.26468246
Au       2.08822749      10.44113744       4.17645498
Au       0.00000000       8.35290995       8.35290995
Au       0.00000000      10.44113744      10.44113744
Au       2.08822749       8.35290995      10.44113744
Au       2.08822749      10.44113744       8.35290995
Au       0.00000000       8.35290995      12.52936493
Au       0.00000000      10.44113744      14.61759241
Au       2.08822749       8.35290995      14.61759241
Au       2.08822749      10.44113744      12.52936493
Au       0.00000000       8.35290995      16.70581990
Au       0.00000000      10.44113744      18.79404739
Au       2.08822749       8.35290995      18.79404739
Au       2.08822749      10.44113744      16.70581990
Au       0.00000000       8.35290995      20.88227488
Au       0.00000000      12.52936493     -16.70581990
Au       0.00000000      14.61759241     -14.61759241
Au       2.08822749      12.52936493     -14.61759241
Au       0.00000000      12.52936493     -12.52936493
Au       0.00000000      14.61759241     -10.44113744
Au       2.08822749      12.52936493     -10.44113744
Au       2.08822749      14.61759241     -12.52936493
Au       0.00000000      12.52936493      -8.35290995
Au       0.00000000      14.61759241      -6.26468246
Au       2.08822749      12.52936493      -6.26468246
Au       2.08822749      14.61759241      -8.35290995
Au       0.00000000      12.52936493      -4.17645498
Au       0.00000000      14.61759241      -2.08822749
Au       2.08822749      12.52936493      -2.08822749
Au       2.08822749      14.61759241      -4.17645498
Au       0.00000000      12.52936493       0.00000000
Au       0.00000000      14.61759241       2.08822749
Au       2.08822749      12.52936493       2.08822749
Au       2.08822749      14.61759241       0.00000000
Au       0.00000000      12.52936493       4.17645498
Au       0.00000000      14.61759241       6.26468246
Au       2.08822749      12.52936493       6.26468246
Au       2.08822749      14.61759241       4.17645498
Au       0.00000000      12.52936493       8.35290995
Au       0.00000000      14.61759241      10.44113744
Au       2.08822749      12.52936493      10.44113744
Au       2.08822749      14.61759241       8.35290995
Au       0.00000000      12.52936493      12.52936493
Au       0.00000000      14.61759241      14.61759241
Au       2.08822749      12.52936493      14.61759241
Au       2.08822749      14.61759241      12.52936493
Au       0.00000000      12.52936493      16.70581990
Au       0.00000000      16.70581990     -12.52936493
Au       0.00000000      18.79404739     -10.44113744
Au       2.08822749      16.70581990     -10.44113744
Au       0.00000000      16.70581990      -8.35290995
Au       0.00000000      18.79404739      -6.26468246
Au       2.08822749      16.70581990      -6.26468246
Au       2.08822749      18.79404739      -8.35290995
Au       0.00000000      16.70581990      -4.17645498
Au       0.00000000      18.79404739      -2.08822749
Au       2.08822749      16.70581990      -2.08822749
Au       2.08822749      18.79404739      -4.17645498
Au       0.00000000      16.70581990       0.00000000
Au       0.00000000      18.79404739       2.08822749
Au       2.08822749      16.70581990       2.08822749
Au       2.08822749      18.79404739       0.00000000
Au       0.00000000      16.70581990       4.17645498
Au       0.00000000      18.79404739       6.26468246
Au       2.08822749      16.70581990       6.26468246
Au       2.08822749      18.79404739       4.17645498
Au       0.00000000      16.70581990       8.35290995
Au       0.00000000      18.79404739      10.44113744
Au       2.08822749      16.70581990      10.44113744
Au       2.08822749      18.79404739       8.35290995
Au       0.00000000      16.70581990      12.52936493
Au       0.00000000      20.88227488      -8.35290995
Au       2.08822749      20.88227488      -6.26468246
Au       0.00000000      20.88227488      -4.17645498
Au       2.08822749      20.88227488      -2.08822749
Au       0.00000000      20.88227488       0.00000000
Au       2.08822749      20.88227488       2.08822749
Au       0.00000000      20.88227488       4.17645498
Au       2.08822749      20.88227488       6.26468246
Au       0.00000000      20.88227488       8.35290995
Au       4.17645498     -18.79404739      -6.26468246
Au       4.17645498     -20.88227488      -4.17645498
Au       4.17645498     -18.79404739      -2.08822749
Au       6.26468246     -20.88227488      -2.08822749
Au       6.26468246     -18.79404739      -4.17645498
Au       4.17645498     -20.88227488       0.00000000
Au       4.17645498     -18.79404739       2.08822749
Au       6.26468246     -20.88227488       2.08822749
Au       6.26468246     -18.79404739       0.00000000
Au       4.17645498     -20.88227488       4.17645498
Au       4.17645498     -18.79404739       6.26468246
Au       6.26468246     -18.79404739       4.17645498
Au       4.17645498     -14.61759241     -10.44113744
Au       4.17645498     -16.70581990      -8.35290995
Au       4.17645498     -14.61759241      -6.26468246
Au       6.26468246     -16.70581990      -6.26468246
Au       6.26468246     -14.61759241      -8.35290995
Au       4.17645498     -16.70581990      -4.17645498
Au       4.17645498     -14.61759241      -2.08822749
Au       6.26468246     -16.70581990      -2.08822749
Au       6.26468246     -14.61759241      -4.17645498
Au       4.17645498     -16.70581990       0.00000000
Au       4.17645498     -14.61759241       2.08822749
Au       6.26468246     -16.70581990       2.08822749
Au       6.26468246     -14.61759241       0.00000000
Au       4.17645498     -16.70581990       4.17645498
Au       4.17645498     -14.61759241       6.26468246
Au       6.26468246     -16.70581990       6.26468246
Au       6.26468246     -14.61759241       4.17645498
Au       4.17645498     -16.70581990       8.35290995
Au       4.17645498     -14.61759241      10.44113744
Au       6.26468246     -14.61759241       8.35290995
Au       4.17645498     -10.44113744     -14.61759241
Au       4.17645498     -12.52936493     -12.52936493
Au       4.17645498     -10.44113744     -10.44113744
Au       6.26468246     -12.52936493     -10.44113744
Au       6.26468246     -10.44113744     -12.52936493
Au       4.17645498     -12.52936493      -8.35290995
Au       4.17645498     -10.44113744      -6.26468246
Au       6.26468246     -12.52936493      -6.26468246
Au       6.26468246     -10.44113744      -8.35290995
Au       4.17645498     -12.52936493      -4.17645498
Au       4.17645498     -10.44113744      -2.08822749
Au       6.26468246     -12.52936493      -2.08822749
Au       6.26468246     -10.44113744      -4.17645498
Au       4.17645498     -12.52936493       0.00000000
Au       4.17645498     -10.44113744       2.08822749
Au       6.26468246     -12.52936493       2.08822749
Au       6.26468246     -10.44113744       0.00000000
Au       4.17645498     -12.52936493       4.17645498
Au       4.17645498     -10.44113744       6.26468246
Au       6.26468246     -12.52936493       6.26468246
Au       6.26468246     -10.44113744       4.17645498
Au       4.17645498     -12.52936493       8.35290995
Au       4.17645498     -10.44113744      10.44113744
Au       6.26468246     -12.52936493      10.44113744
Au       6.26468246     -10.44113744       8.35290995
Au       4.17645498     -12.52936493      12.52936493
Au       4.17645498     -10.44113744      14.61759241
Au       6.26468246     -10.44113744      12.52936493
Au       4.17645498      -6.26468246     -18.79404739
Au       4.17645498      -8.35290995     -16.70581990
Au       4.17645498      -6.26468246     -14.61759241
Au       6.26468246      -8.35290995     -14.61759241
Au       6.26468246      -6.26468246     -16.70581990
Au       4.17645498      -8.35290995     -12.52936493
Au       4.17645498      -6.26468246     -10.44113744
Au       6.26468246      -8.35290995     -10.44113744
Au       6.26468246      -6.26468246     -12.52936493
Au       4.17645498      -8.35290995      -8.35290995
Au       4.17645498      -6.26468246      -6.26468246
Au       6.26468246      -8.35290995      -6.26468246
Au       6.26468246      -6.26468246      -8.35290995
Au       4.17645498      -8.35290995      -4.17645498
Au       4.17645498      -6.26468246      -2.08822749
Au       6.26468246      -8.35290995      -2.08822749
Au       6.26468246      -6.26468246      -4.17645498
Au       4.17645498      -8.35290995       0.00000000
Au       4.17645498      -6.26468246       2.08822749
Au       6.26468246      -8.35290995       2.08822749
Au       6.26468246      -6.26468246       0.00000000
Au       4.17645498      -8.35290995       4.17645498
Au       4.17645498      -6.26468246       6.26468246
Au       6.26468246      -8.35290995       6.26468246
Au       6.26468246      -6.26468246       4.17645498
Au       4.17645498      -8.35290995       8.35290995
Au       4.17645498      -6.26468246      10.44113744
Au       6.26468246      -8.35290995      10.44113744
Au       6.26468246      -6.26468246       8.35290995
Au       4.17645498      -8.35290995      12.52936493
Au       4.17645498      -6.26468246      14.61759241
Au       6.26468246      -8.35290995      14.61759241
Au       6.26468246      -6.26468246      12.52936493
Au       4.17645498      -8.35290995      16.70581990
Au       4.17645498      -6.26468246      18.79404739
Au       6.26468246      -6.26468246      16.70581990
Au       4.17645498      -4.17645498     -20.88227488
Au       4.17645498      -2.08822749     -18.79404739
Au       6.26468246      -4.17645498     -18.79404739
Au       6.26468246      -2.08822749     -20.88227488
Au       4.17645498      -4.17645498     -16.70581990
Au       4.17645498      -2.08822749     -14.61759241
Au       6.26468246      -4.17645498     -14.61759241
Au       6.26468246      -2.08822749     -16.70581990
Au       4.17645498      -4.17645498     -12.52936493
Au       4.17645498      -2.08822749     -10.44113744
Au       6.26468246      -4.17645498     -10.44113744
Au       6.26468246      -2.08822749     -12.52936493
Au       4.17645498      -4.17645498      -8.35290995
Au       4.17645498      -2.08822749      -6.26468246
Au       6.26468246      -4.17645498      -6.26468246
Au       6.26468246      -2.08822749      -8.35290995
Au       4.17645498      -4.17645498      -4.17645498
Au       4.17645498      -2.08822749      -2.08822749
Au       6.26468246      -4.17645498      -2.08822749
Au       6.26468246      -2.08822749      -4.17645498
Au       4.17645498      -4.17645498       0.00000000
Au       4.17645498      -2.08822749       2.08822749
Au       6.26468246      -4.17645498       2.08822749
Au       6.26468246      -2.08822749       0.00000000
Au       4.17645498      -4.17645498       4.17645498
Au       4.17645498      -2.08822749       6.26468246
Au       6.26468246      -4.17645498       6.26468246
Au       6.26468246      -2.08822749       4.17645498
Au       4.17645498      -4.17645498       8.35290995
Au       4.17645498      -2.08822749      10.44113744
Au       6.26468246      -4.17645498      10.44113744
Au       6.26468246      -2.08822749       8.35290995
Au       4.17645498      -4.17645498      12.52936493
Au       4.17645498      -2.08822749      14.61759241
Au       6.26468246      -4.17645498      14.61759241
Au       6.26468246      -2.08822749      12.52936493
Au       4.17645498      -4.17645498      16.70581990
Au       4.17645498      -2.08822749      18.79404739
Au       6.26468246      -4.17645498      18.79404739
Au       6.26468246      -2.08822749      16.70581990
Au       4.17645498      -4.17645498      20.88227488
Au       6.26468246      -2.08822749      20.88227488
Au       4.17645498       0.00000000     -20.88227488
Au       4.17645498       2.08822749     -18.79404739
Au       6.26468246       0.00000000     -18.79404739
Au       6.26468246       2.08822749     -20.88227488
Au       4.17645498       0.00000000     -16.70581990
Au       4.17645498       2.08822749     -14.61759241
Au       6.26468246       0.00000000     -14.61759241
Au       6.26468246       2.08822749     -16.70581990
Au       4.17645498       0.00000000     -12.52936493
Au       4.17645498       2.08822749     -10.44113744
Au       6.26468246       0.00000000     -10.44113744
Au       6.26468246       2.08822749     -12.52936493
Au       4.17645498       0.00000000      -8.35290995
Au       4.17645498       2.08822749      -6.26468246
Au       6.26468246       0.00000000      -6.26468246
Au       6.26468246       2.08822749      -8.35290995
Au       4.17645498       0.00000000      -4.17645498
Au       4.17645498       2.08822749      -2.08822749
Au       6.26468246       0.00000000      -2.08822749
Au       6.26468246       2.08822749      -4.17645498
Au       4.17645498       0.00000000       0.00000000
Au       4.17645498       2.08822749       2.08822749
Au       6.26468246       0.00000000       2.08822749
Au       6.26468246       2.08822749       0.00000000
Au       4.17645498       0.00000000       4.17645498
Au       4.17645498       2.08822749       6.26468246
Au       6.26468246       0.00000000       6.26468246
Au       6.26468246       2.08822749       4.17645498
Au       4.17645498       0.00000000       8.35290995
Au       4.17645498       2.08822749      10.44113744
Au       6.26468246       0.00000000      10.44113744
Au       6.26468246       2.08822749       8.35290995
Au       4.17645498       0.00000000      12.52936493
Au       4.17645498       2.08822749      14.61759241
Au       6.26468246       0.00000000      14.61759241
Au       6.26468246       2.08822749      12.52936493
Au       4.17645498       0.00000000      16.70581990
Au       4.17645498       2.08822749      18.79404739
Au       6.26468246       0.00000000      18.79404739
Au       6.26468246       2.08822749      16.70581990
Au       4.17645498       0.00000000      20.88227488
Au       6.26468246       2.08822749      20.88227488
Au       4.17645498       4.17645498     -20.88227488
Au       4.17645498       6.26468246     -18.79404739
Au       6.26468246       4.17645498     -18.79404739
Au       4.17645498       4.17645498     -16.70581990
Au       4.17645498       6.26468246     -14.61759241
Au       6.26468246       4.17645498     -14.61759241
Au       6.26468246       6.26468246     -16.70581990
Au       4.17645498       4.17645498     -12.52936493
Au       4.17645498       6.26468246     -10.44113744
Au       6.26468246       4.17645498     -10.44113744
Au       6.26468246       6.26468246     -12.52936493
Au       4.17645498       4.17645498      -8.35290995
Au       4.17645498       6.26468246      -6.26468246
Au       6.26468246       4.17645498      -6.26468246
Au       6.26468246       6.26468246      -8.35290995
Au       4.17645498       4.17645498      -4.17645498
Au       4.17645498       6.26468246      -2.08822749
Au       6.26468246       4.17645498      -2.08822749
Au       6.26468246       6.26468246      -4.17645498
Au       4.17645498       4.17645498       0.00000000
Au       4.17645498       6.26468246       2.08822749
Au       6.26468246       4.17645498       2.08822749
Au       6.26468246       6.26468246       0.00000000
Au       4.17645498       4.17645498       4.17645498
Au       4.17645498       6.26468246       6.26468246
Au       6.26468246       4.17645498       6.26468246
Au       6.26468246       6.26468246       4.17645498
Au       4.17645498       4.17645498       8.35290995
Au       4.17645498       6.26468246      10.44113744
Au       6.26468246       4.17645498      10.44113744
Au       6.26468246       6.26468246       8.35290995
Au       4.17645498       4.17645498      12.52936493
Au       4.17645498       6.26468246      14.61759241
Au       6.26468246       4.17645498      14.61759241
Au       6.26468246       6.26468246      12.52936493
Au       4.17645498       4.17645498      16.70581990
Au       4.17645498       6.26468246      18.79404739
Au       6.26468246       4.17645498      18.79404739
Au       6.26468246       6.26468246      16.70581990
Au       4.17645498       4.17645498      20.88227488
Au       4.17645498       8.35290995     -16.70581990
Au       4.17645498      10.44113744     -14.61759241
Au       6.26468246       8.35290995     -14.61759241
Au       4.17645498       8.35290995     -12.52936493
Au       4.17645498      10.44113744     -10.44113744
Au       6.26468246       8.35290995     -10.44113744
Au       6.26468246      10.44113744     -12.52936493
Au       4.17645498       8.35290995      -8.35290995
Au       4.17645498      10.44113744      -6.26468246
Au       6.26468246       8.35290995      -6.26468246
Au       6.26468246      10.44113744      -8.35290995
Au       4.17645498       8.35290995      -4.17645498
Au       4.17645498      10.44113744      -2.08822749
Au       6.26468246       8.35290995      -2.08822749
Au       6.26468246      10.44113744      -4.17645498
Au       4.17645498       8.35290995       0.00000000
Au       4.17645498      10.44113744       2.08822749
Au       6.26468246       8.35290995       2.08822749
Au       6.26468246      10.44113744       0.00000000
Au       4.17645498       8.35290995       4.17645498
Au       4.17645498      10.44113744       6.26468246
Au       6.26468246       8.35290995       6.26468246
Au       6.26468246      10.44113744       4.17645498
Au       4.17645498       8.35290995       8.35290995
Au       4.17645498      10.44113744      10.44113744
Au       6.26468246       8.35290995      10.44113744
Au       6.26468246      10.44113744       8.35290995
Au       4.17645498       8.35290995      12.52936493
Au       4.17645498      10.44113744      14.61759241
Au       6.26468246       8.35290995      14.61759241
Au       6.26468246      10.44113744      12.52936493
Au       4.17645498       8.35290995      16.70581990
Au       4.17645498      12.52936493     -12.52936493
Au       4.17645498      14.61759241     -10.44113744
Au       6.26468246      12.52936493     -10.44113744
Au       4.17645498      12.52936493      -8.35290995
Au       4.17645498      14.61759241      -6.26468246
Au       6.26468246      12.52936493      -6.26468246
Au       6.26468246      14.61759241      -8.35290995
Au       4.17645498      12.52936493      -4.17645498
Au       4.17645498      14.61759241      -2.08822749
Au       6.26468246      12.52936493      -2.08822749
Au       6.26468246      14.61759241      -4.17645498
Au       4.17645498      12.52936493       0.00000000
Au       4.17645498      14.61759241       2.08822749
Au       6.26468246      12.52936493       2.08822749
Au       6.26468246      14.61759241       0.00000000
Au       4.17645498      12.52936493       4.17645498
Au       4.17645498      14.61759241       6.26468246
Au       6.26468246      12.52936493       6.26468246
Au       6.26468246      14.61759241       4.17645498
Au       4.17645498      12.52936493       8.35290995
Au       4.17645498      14.61759241      10.44113744
Au       6.26468246      12.52936493      10.44113744
Au       6.26468246      14.61759241       8.35290995
Au       4.17645498      12.52936493      12.52936493
Au       4.17645498      16.70581990      -8.35290995
Au       4.17645498      18.79404739      -6.26468246
Au       6.26468246      16.70581990      -6.26468246
Au       4.17645498      16.70581990      -4.17645498
Au       4.17645498      18.79404739      -2.08822749
Au       6.26468246      16.70581990      -2.08822749
Au       6.26468246      18.79404739      -4.17645498
Au       4.17645498      16.70581990       0.00000000
Au       4.17645498      18.79404739       2.08822749
Au       6.26468246      16.70581990       2.08822749
Au       6.26468246      18.79404739       0.00000000
Au       4.17645498      16.70581990       4.17645498
Au       4.17645498      18.79404739       6.26468246
Au       6.26468246      16.70581990       6.26468246
Au       6.26468246      18.79404739       4.17645498
Au       4.17645498      16.70581990       8.35290995
Au       4.17645498      20.88227488      -4.17645498
Au       6.26468246      20.88227488      -2.08822749
Au       4.17645498      20.88227488       0.00000000
Au       6.26468246      20.88227488       2.08822749
Au       4.17645498      20.88227488       4.17645498
Au       8.35290995     -18.79404739      -2.08822749
Au       8.35290995     -20.88227488       0.00000000
Au       8.35290995     -18.79404739       2.08822749
Au      10.44113744     -18.79404739       0.00000000
Au       8.35290995     -14.61759241      -6.26468246
Au       8.35290995     -16.70581990      -4.17645498
Au       8.35290995     -14.61759241      -2.08822749
Au      10.44113744     -16.70581990      -2.08822749
Au      10.44113744     -14.61759241      -4.17645498
Au       8.35290995     -16.70581990       0.00000000
Au       8.35290995     -14.61759241       2.08822749
Au      10.44113744     -16.70581990       2.08822749
Au      10.44113744     -14.61759241       0.00000000
Au       8.35290995     -16.70581990       4.17645498
Au       8.35290995     -14.61759241       6.26468246
Au      10.44113744     -14.61759241       4.17645498
Au       8.35290995     -10.44113744     -10.44113744
Au       8.35290995     -12.52936493      -8.35290995
Au       8.35290995     -10.44113744      -6.26468246
Au      10.44113744     -12.52936493      -6.26468246
Au      10.44113744     -10.44113744      -8.35290995
Au       8.35290995     -12.52936493      -4.17645498
Au       8.35290995     -10.44113744      -2.08822749
Au      10.44113744     -12.52936493      -2.08822749
Au      10.44113744     -10.44113744      -4.17645498
Au       8.35290995     -12.52936493       0.00000000
Au       8.35290995     -10.44113744       2.08822749
Au      10.44113744     -12.52936493       2.08822749
Au      10.44113744     -10.44113744       0.00000000
Au       8.35290995     -12.52936493       4.17645498
Au       8.35290995     -10.44113744       6.26468246
Au      10.44113744     -12.52936493       6.26468246
Au      10.44113744     -10.44113744       4.17645498
Au       8.35290995     -12.52936493       8.35290995
Au       8.35290995     -10.44113744      10.44113744
Au      10.44113744     -10.44113744       8.35290995
Au       8.35290995      -6.26468246     -14.61759241
Au       8.35290995      -8.35290995     -12.52936493
Au       8.35290995      -6.26468246     -10.44113744
Au      10.44113744      -8.35290995     -10.44113744
Au      10.44113744      -6.26468246     -12.52936493
Au       8.35290995      -8.35290995      -8.35290995
Au       8.35290995      -6.26468246      -6.26468246
Au      10.44113744      -8.35290995      -6.26468246
Au      10.44113744      -6.26468246      -8.35290995
Au       8.35290995      -8.35290995      -4.17645498
Au       8.35290995      -6.26468246      -2.08822749
Au      10.44113744      -8.35290995      -2.08822749
Au      10.44113744      -6.26468246      -4.17645498
Au       8.35290995      -8.35290995       0.00000000
Au       8.35290995      -6.26468246       2.08822749
Au      10.44113744      -8.35290995       2.08822749
Au      10.44113744      -6.26468246       0.00000000
Au       8.35290995      -8.35290995       4.17645498
Au       8.35290995      -6.26468246       6.26468246
Au      10.44113744      -8.35290995       6.26468246
Au      10.44113744      -6.26468246       4.17645498
Au       8.35290995      -8.35290995       8.35290995
Au       8.35290995      -6.26468246      10.44113744
Au      10.44113744      -8.35290995      10.44113744
Au      10.44113744      -6.26468246       8.35290995
Au       8.35290995      -8.35290995      12.52936493
Au       8.35290995      -6.26468246      14.61759241
Au      10.44113744      -6.26468246      12.52936493
Au       8.35290995      -2.08822749     -18.79404739
Au       8.35290995      -4.17645498     -16.70581990
Au       8.35290995      -2.08822749     -14.61759241
Au      10.44113744      -4.17645498     -14.61759241
Au      10.44113744      -2.08822749     -16.70581990
Au       8.35290995      -4.17645498     -12.52936493
Au       8.35290995      -2.08822749     -10.44113744
Au      10.44113744      -4.17645498     -10.44113744
Au      10.44113744      -2.08822749     -12.52936493
Au       8.35290995      -4.17645498      -8.35290995
Au       8.35290995      -2.08822749      -6.26468246
Au      10.44113744      -4.17645498      -6.26468246
Au      10.44113744      -2.08822749      -8.35290995
Au       8.35290995      -4.17645498      -4.17645498
Au       8.35290995      -2.08822749      -2.08822749
Au      10.44113744      -4.17645498      -2.08822749
Au      10.44113744      -2.08822749      -4.17645498
Au       8.35290995      -4.17645498       0.00000000
Au       8.35290995      -2.08822749       2.08822749
Au      10.44113744      -4.17645498       2.08822749
Au      10.44113744      -2.08822749       0.00000000
Au       8.35290995      -4.17645498       4.17645498
Au       8.35290995      -2.08822749       6.26468246
Au      10.44113744      -4.17645498       6.26468246
Au      10.44113744      -2.08822749       4.17645498
Au       8.35290995      -4.17645498       8.35290995
Au       8.35290995      -2.08822749      10.44113744
Au      10.44113744      -4.17645498      10.44113744
Au      10.44113744      -2.08822749       8.35290995
Au       8.35290995      -4.17645498      12.52936493
Au       8.35290995      -2.08822749      14.61759241
Au      10.44113744      -4.17645498      14.61759241
Au      10.44113744      -2.08822749      12.52936493
Au       8.35290995      -4.17645498      16.70581990
Au       8.35290995      -2.08822749      18.79404739
Au      10.44113744      -2.08822749      16.70581990
Au       8.35290995       0.00000000     -20.88227488
Au       8.35290995       2.08822749     -18.79404739
Au      10.44113744       0.00000000     -18.79404739
Au       8.35290995       0.00000000     -16.70581990
Au       8.35290995       2.08822749     -14.61759241
Au      10.44113744       0.00000000     -14.61759241
Au      10.44113744       2.08822749     -16.70581990
Au       8.35290995       0.00000000     -12.52936493
Au       8.35290995       2.08822749     -10.44113744
Au      10.44113744       0.00000000     -10.44113744
Au      10.44113744       2.08822749     -12.52936493
Au       8.35290995       0.00000000      -8.35290995
Au       8.35290995       2.08822749      -6.26468246
Au      10.44113744       0.00000000      -6.26468246
Au      10.44113744       2.08822749      -8.35290995
Au       8.35290995       0.00000000      -4.17645498
Au       8.35290995       2.08822749      -2.08822749
Au      10.44113744       0.00000000      -2.08822749
Au      10.44113744       2.08822749      -4.17645498
Au       8.35290995       0.00000000       0.00000000
Au       8.35290995       2.08822749       2.08822749
Au      10.44113744       0.00000000       2.08822749
Au      10.44113744       2.08822749       0.00000000
Au       8.35290995       0.00000000       4.17645498
Au       8.35290995       2.08822749       6.26468246
Au      10.44113744       0.00000000       6.26468246
Au      10.44113744       2.08822749       4.17645498
Au       8.35290995       0.00000000       8.35290995
Au       8.35290995       2.08822749      10.44113744
Au      10.44113744       0.00000000      10.44113744
Au      10.44113744       2.08822749       8.35290995
Au       8.35290995       0.00000000      12.52936493
Au       8.35290995       2.08822749      14.61759241
Au      10.44113744       0.00000000      14.61759241
Au      10.44113744       2.08822749      12.52936493
Au       8.35290995       0.00000000      16.70581990
Au       8.35290995       2.08822749      18.79404739
Au      10.44113744       0.00000000      18.79404739
Au      10.44113744       2.08822749      16.70581990
Au       8.35290995       0.00000000      20.88227488
Au       8.35290995       4.17645498     -16.70581990
Au       8.35290995       6.26468246     -14.61759241
Au      10.44113744       4.17645498     -14.61759241
Au       8.35290995       4.17645498     -12.52936493
Au       8.35290995       6.26468246     -10.44113744
Au      10.44113744       4.17645498     -10.44113744
Au      10.44113744       6.26468246     -12.52936493
Au       8.35290995       4.17645498      -8.35290995
Au       8.35290995       6.26468246      -6.26468246
Au      10.44113744       4.17645498      -6.26468246
Au      10.44113744       6.26468246      -8.35290995
Au       8.35290995       4.17645498      -4.17645498
Au       8.35290995       6.26468246      -2.08822749
Au      10.44113744       4.17645498      -2.08822749
Au      10.44113744       6.26468246      -4.17645498
Au       8.35290995       4.17645498       0.00000000
Au       8.35290995       6.26468246       2.08822749
Au      10.44113744       4.17645498       2.08822749
Au      10.44113744       6.26468246       0.00000000
Au       8.35290995       4.17645498       4.17645498
Au       8.35290995       6.26468246       6.26468246
Au      10.44113744       4.17645498       6.26468246
Au      10.44113744       6.26468246       4.17645498
Au       8.35290995       4.17645498       8.35290995
Au       8.35290995       6.26468246      10.44113744
Au      10.44113744       4.17645498      10.44113744
Au      10.44113744       6.26468246       8.35290995
Au       8.35290995       4.17645498      12.52936493
Au       8.35290995       6.26468246      14.61759241
Au      10.44113744       4.17645498      14.61759241
Au      10.44113744       6.26468246      12.52936493
Au       8.35290995       4.17645498      16.70581990
Au       8.35290995       8.35290995     -12.52936493
Au       8.35290995      10.44113744     -10.44113744
Au      10.44113744       8.35290995     -10.44113744
Au       8.35290995       8.35290995      -8.35290995
Au       8.35290995      10.44113744      -6.26468246
Au      10.44113744       8.35290995      -6.26468246
Au      10.44113744      10.44113744      -8.35290995
Au       8.35290995       8.35290995      -4.17645498
Au       8.35290995      10.44113744      -2.08822749
Au      10.44113744       8.35290995      -2.08822749
Au      10.44113744      10.44113744      -4.17645498
Au       8.35290995       8.35290995       0.00000000
Au       8.35290995      10.44113744       2.08822749
Au      10.44113744       8.35290995       2.08822749
Au      10.44113744      10.44113744       0.00000000
Au       8.35290995       8.35290995       4.17645498
Au       8.35290995      10.44113744       6.26468246
Au      10.44113744       8.35290995       6.26468246
Au      10.44113744      10.44113744       4.17645498
Au       8.35290995       8.35290995       8.35290995
Au       8.35290995      10.44113744      10.44113744
Au      10.44113744       8.35290995      10.44113744
Au      10.44113744      10.44113744       8.35290995
Au       8.35290995       8.35290995      12.52936493
Au       8.35290995      12.52936493      -8.35290995
Au       8.35290995      14.61759241      -6.26468246
Au      10.44113744      12.52936493      -6.26468246
Au       8.35290995      12.52936493      -4.17645498
Au       8.35290995      14.61759241      -2.08822749
Au      10.44113744      12.52936493      -2.08822749
Au      10.44113744      14.61759241      -4.17645498
Au       8.35290995      12.52936493       0.00000000
Au       8.35290995      14.61759241       2.08822749
Au      10.44113744      12.52936493       2.08822749
Au      10.44113744      14.61759241       0.00000000
Au       8.35290995      12.52936493       4.17645498
Au       8.35290995      14.61759241       6.26468246
Au      10.44113744      12.52936493       6.26468246
Au      10.44113744      14.61759241       4.17645498
Au       8.35290995      12.52936493       8.35290995
Au       8.35290995      16.70581990      -4.17645498
Au       8.35290995      18.79404739      -2.08822749
Au      10.44113744      16.70581990      -2.08822749
Au       8.35290995      16.70581990       0.00000000
Au       8.35290995      18.79404739       2.08822749
Au      10.44113744      16.70581990       2.08822749
Au      10.44113744      18.79404739       0.00000000
Au       8.35290995      16.70581990       4.17645498
Au       8.35290995      20.88227488       0.00000000
Au      12.52936493     -14.61759241      -2.08822749
Au      12.52936493     -16.70581990       0.00000000
Au      12.52936493     -14.61759241       2.08822749
Au      14.61759241     -14.61759241       0.00000000
Au      12.52936493     -10.44113744      -6.26468246
Au      12.52936493     -12.52936493      -4.17645498
Au      12.52936493     -10.44113744      -2.08822749
Au      14.61759241     -12.52936493      -2.08822749
Au      14.61759241     -10.44113744      -4.17645498
Au      12.52936493     -12.52936493       0.00000000
Au      12.52936493     -10.44113744       2.08822749
Au      14.61759241     -12.52936493       2.08822749
Au      14.61759241     -10.44113744       0.00000000
Au      12.52936493     -12.52936493       4.17645498
Au      12.52936493     -10.44113744       6.26468246
Au      14.61759241     -10.44113744       4.17645498
Au      12.52936493      -6.26468246     -10.44113744
Au      12.52936493      -8.35290995      -8.35290995
Au      12.52936493      -6.26468246      -6.26468246
Au      14.61759241      -8.35290995      -6.26468246
Au      14.61759241      -6.26468246      -8.35290995
Au      12.52936493      -8.35290995      -4.17645498
Au      12.52936493      -6.26468246      -2.08822749
Au      14.61759241      -8.35290995      -2.08822749
Au      14.61759241      -6.26468246      -4.17645498
Au      12.52936493      -8.35290995       0.00000000
Au      12.52936493      -6.26468246       2.08822749
Au      14.61759241      -8.35290995       2.08822749
Au      14.61759241      -6.26468246       0.00000000
Au      12.52936493      -8.35290995       4.17645498
Au      12.52936493      -6.26468246       6.26468246
Au      14.61759241      -8.35290995       6.26468246
Au      14.61759241      -6.26468246       4.17645498
Au      12.52936493      -8.35290995       8.35290995
Au      12.52936493      -6.26468246      10.44113744
Au      14.61759241      -6.26468246       8.35290995
Au      12.52936493      -2.08822749     -14.61759241
Au      12.52936493      -4.17645498     -12.52936493
Au      12.52936493      -2.08822749     -10.44113744
Au      14.61759241      -4.17645498     -10.44113744
Au      14.61759241      -2.08822749     -12.52936493
Au      12.52936493      -4.17645498      -8.35290995
Au      12.52936493      -2.08822749      -6.26468246
Au      14.61759241      -4.17645498      -6.26468246
Au      14.61759241      -2.08822749      -8.35290995
Au      12.52936493      -4.17645498      -4.17645498
Au      12.52936493      -2.08822749      -2.08822749
Au      14.61759241      -4.17645498      -2.08822749
Au      14.61759241      -2.08822749      -4.17645498
Au      12.52936493      -4.17645498       0.00000000
Au      12.52936493      -2.08822749       2.08822749
Au      14.61759241      -4.17645498       2.08822749
Au      14.61759241      -2.08822749       0.00000000
Au      12.52936493      -4.17645498       4.17645498
Au      12.52936493      -2.08822749       6.26468246
Au      14.61759241      -4.17645498       6.26468246
Au      14.61759241      -2.08822749       4.17645498
Au      12.52936493      -4.17645498       8.35290995
Au      12.52936493      -2.08822749      10.44113744
Au      14.61759241      -4.17645498      10.44113744
Au      14.61759241      -2.08822749       8.35290995
Au      12.52936493      -4.17645498      12.52936493
Au      12.52936493      -2.08822749      14.61759241
Au      14.61759241      -2.08822749      12.52936493
Au      12.52936493       0.00000000     -16.70581990
Au      12.52936493       2.08822749     -14.61759241
Au      14.61759241       0.00000000     -14.61759241
Au      12.52936493       0.00000000     -12.52936493
Au      12.52936493       2.08822749     -10.44113744
Au      14.61759241       0.00000000     -10.44113744
Au      14.61759241       2.08822749     -12.52936493
Au      12.52936493       0.00000000      -8.35290995
Au      12.52936493       2.08822749      -6.26468246
Au      14.61759241       0.00000000      -6.26468246
Au      14.61759241       2.08822749      -8.35290995
Au      12.52936493       0.00000000      -4.17645498
Au      12.52936493       2.08822749      -2.08822749
Au      14.61759241       0.00000000      -2.08822749
Au      14.61759241       2.08822749      -4.17645498
Au      12.52936493       0.00000000       0.00000000
Au      12.52936493       2.08822749       2.08822749
Au      14.61759241       0.00000000       2.08822749
Au      14.61759241       2.08822749       0.00000000
Au      12.52936493       0.00000000       4.17645498
Au      12.52936493       2.08822749       6.26468246
Au      14.61759241       0.00000000       6.26468246
Au      14.61759241       2.08822749       4.17645498
Au      12.52936493       0.00000000       8.35290995
Au      12.52936493       2.08822749      10.44113744
Au      14.61759241       0.00000000      10.44113744
Au      14.61759241       2.08822749       8.35290995
Au      12.52936493       0.00000000      12.52936493
Au      12.52936493       2.08822749      14.61759241
Au      14.61759241       0.00000000      14.61759241
Au      14.61759241       2.08822749      12.52936493
Au      12.52936493       0.00000000      16.70581990
Au      12.52936493       4.17645498     -12.52936493
Au      12.52936493       6.26468246     -10.44113744
Au      14.61759241       4.17645498     -10.44113744
Au      12.52936493       4.17645498      -8.35290995
Au      12.52936493       6.26468246      -6.26468246
Au      14.61759241       4.17645498      -6.26468246
Au      14.61759241       6.26468246      -8.35290995
Au      12.52936493       4.17645498      -4.17645498
Au      12.52936493       6.26468246      -2.08822749
Au      14.61759241       4.17645498      -2.08822749
Au      14.61759241       6.26468246      -4.17645498
Au      12.52936493       4.17645498       0.00000000
Au      12.52936493       6.26468246       2.08822749
Au      14.61759241       4.17645498       2.08822749
Au      14.61759241       6.26468246       0.00000000
Au      12.52936493       4.17645498       4.17645498
Au      12.52936493       6.26468246       6.26468246
Au      14.61759241       4.17645498       6.26468246
Au      14.61759241       6.26468246       4.17645498
Au      12.52936493       4.17645498       8.35290995
Au      12.52936493       6.26468246      10.44113744
Au      14.61759241       4.17645498      10.44113744
Au      14.61759241       6.26468246       8.35290995
Au      12.52936493       4.17645498      12.52936493
Au      12.52936493       8.35290995      -8.35290995
Au      12.52936493      10.44113744      -6.26468246
Au      14.61759241       8.35290995      -6.26468246
Au      12.52936493       8.35290995      -4.17645498
Au      12.52936493      10.44113744      -2.08822749
Au      14.61759241       8.35290995      -2.08822749
Au      14.61759241      10.44113744      -4.17645498
Au      12.52936493       8.35290995       0.00000000
Au      12.52936493      10.44113744       2.08822749
Au      14.61759241       8.35290995       2.08822749
Au      14.61759241      10.44113744       0.00000000
Au      12.52936493       8.35290995       4.17645498
Au      12.52936493      10.44113744       6.26468246
Au      14.61759241       8.35290995       6.26468246
Au      14.61759241      10.44113744       4.17645498
Au      12.52936493       8.35290995       8.35290995
Au      12.52936493      12.52936493      -4.17645498
Au      12.52936493      14.61759241      -2.08822749
Au      14.61759241      12.52936493      -2.08822749
Au      12.52936493      12.52936493       0.00000000
Au      12.52936493      14.61759241       2.08822749
Au      14.61759241      12.52936493       2.08822749
Au      14.61759241      14.61759241       0.00000000
Au      12.52936493      12.52936493       4.17645498
Au      12.52936493      16.70581990       0.00000000
Au      16.70581990     -10.44113744      -2.08822749
Au      16.70581990     -12.52936493       0.00000000
Au      16.70581990     -10.44113744       2.08822749
Au      18.79404739     -10.44113744       0.00000000
Au      16.70581990      -6.26468246      -6.26468246
Au      16.70581990      -8.35290995      -4.17645498
Au      16.70581990      -6.26468246      -2.08822749
Au      18.79404739      -8.35290995      -2.08822749
Au      18.79404739      -6.26468246      -4.17645498
Au      16.70581990      -8.35290995       0.00000000
Au      16.70581990      -6.26468246       2.08822749
Au      18.79404739      -8.35290995       2.08822749
Au      18.79404739      -6.26468246       0.00000000
Au      16.70581990      -8.35290995       4.17645498
Au      16.70581990      -6.26468246       6.26468246
Au      18.79404739      -6.26468246       4.17645498
Au      16.70581990      -2.08822749     -10.44113744
Au      16.70581990      -4.17645498      -8.35290995
Au      16.70581990      -2.08822749      -6.26468246
Au      18.79404739      -4.17645498      -6.26468246
Au      18.79404739      -2.08822749      -8.35290995
Au      16.70581990      -4.17645498      -4.17645498
Au      16.70581990      -2.08822749      -2.08822749
Au      18.79404739      -4.17645498      -2.08822749
Au      18.79404739      -2.08822749      -4.17645498
Au      16.70581990      -4.17645498       0.00000000
Au      16.70581990      -2.08822749       2.08822749
Au      18.79404739      -4.17645498       2.08822749
Au      18.79404739      -2.08822749       0.00000000
Au      16.70581990      -4.17645498       4.17645498
Au      16.70581990      -2.08822749       6.26468246
Au      18.79404739      -4.17645498       6.26468246
Au      18.79404739      -2.08822749       4.17645498
Au      16.70581990      -4.17645498       8.35290995
Au      16.70581990      -2.08822749      10.44113744
Au      18.79404739      -2.08822749       8.35290995
Au      16.70581990       0.00000000     -12.52936493
Au      16.70581990       2.08822749     -10.44113744
Au      18.79404739       0.00000000     -10.44113744
Au      16.70581990       0.00000000      -8.35290995
Au      16.70581990       2.08822749      -6.26468246
Au      18.79404739       0.00000000      -6.26468246
Au      18.79404739       2.08822749      -8.35290995
Au      16.70581990       0.00000000      -4.17645498
Au      16.70581990       2.08822749      -2.08822749
Au      18.79404739       0.00000000      -2.08822749
Au      18.79404739       2.08822749      -4.17645498
Au      16.70581990       0.00000000       0.00000000
Au      16.70581990       2.08822749       2.08822749
Au      18.79404739       0.00000000       2.08822749
Au      18.79404739       2.08822749       0.00000000
Au      16.70581990       0.00000000       4.17645498
Au      16.70581990       2.08822749       6.26468246
Au      18.79404739       0.00000000       6.26468246
Au      18.79404739       2.08822749       4.17645498
Au      16.70581990       0.00000000       8.35290995
Au      16.70581990       2.08822749      10.44113744
Au      18.79404739       0.00000000      10.44113744
Au      18.79404739       2.08822749       8.35290995
Au      16.70581990       0.00000000      12.52936493
Au      16.70581990       4.17645498      -8.35290995
Au      16.70581990       6.26468246      -6.26468246
Au      18.79404739       4.17645498      -6.26468246
Au      16.70581990       4.17645498      -4.17645498
Au      16.70581990       6.26468246      -2.08822749
Au      18.79404739       4.17645498      -2.08822749
Au      18.79404739       6.26468246      -4.17645498
Au      16.70581990       4.17645498       0.00000000
Au      16.70581990       6.26468246       2.08822749
Au      18.79404739       4.17645498       2.08822749
Au      18.79404739       6.26468246       0.00000000
Au      16.70581990       4.17645498       4.17645498
Au      16.70581990       6.26468246       6.26468246
Au      18.79404739       4.17645498       6.26468246
Au      18.79404739       6.26468246       4.17645498
Au      16.70581990       4.17645498       8.35290995
Au      16.70581990       8.35290995      -4.17645498
Au      16.70581990      10.44113744      -2.08822749
Au      18.79404739       8.35290995      -2.08822749
Au      16.70581990       8.35290995       0.00000000
Au      16.70581990      10.44113744       2.08822749
Au      18.79404739       8.35290995       2.08822749
Au      18.79404739      10.44113744       0.00000000
Au      16.70581990       8.35290995       4.17645498
Au      16.70581990      12.52936493       0.00000000
Au      20.88227488      -6.26468246      -2.08822749
Au      20.88227488      -8.35290995       0.00000000
Au      20.88227488      -6.26468246       2.08822749
Au      20.88227488      -2.08822749      -6.26468246
Au      20.88227488      -4.17645498      -4.17645498
Au      20.88227488      -2.08822749      -2.08822749
Au      20.88227488      -4.17645498       0.00000000
Au      20.88227488      -2.08822749       2.08822749
Au      20.88227488      -4.17645498       4.17645498
Au      20.88227488      -2.08822749       6.26468246
Au      20.88227488       0.00000000      -8.35290995
Au      20.88227488       2.08822749      -6.26468246
Au      20.88227488       0.00000000      -4.17645498
Au      20.88227488       2.08822749      -2.08822749
Au      20.88227488       0.00000000       0.00000000
Au      20.88227488       2.08822749       2.08822749
Au      20.88227488       0.00000000       4.17645498
Au      20.88227488       2.08822749       6.26468246
Au      20.88227488       0.00000000       8.35290995
Au      20.88227488       4.17645498      -4.17645498
Au      20.88227488       6.26468246      -2.08822749
Au      20.88227488       4.17645498       0.00000000
Au      20.88227488       6.26468246       2.08822749
Au      20.88227488       4.17645498       4.17645498
Au      20.88227488       8.35290995       0.00000000
