Cu
 1.0000000000000000
     2.5481173814766218   -0.0000000000000000    0.0000000000000002
     1.2740586907383100    2.2067343841835996    0.0000000000001260
     0.0000000000000356    0.0000000000024722   36.0216350702458854
 Cu 
  12
Cartesian
  3.8221760722149249  2.2067343841857938 34.8706894876427285
  1.2740586907383369  0.7355781280633602 32.7679445250346859
  2.5481173814766507  1.4711562561244360 30.6730112467723259
  3.8221760722149645  2.2067343841854856 28.5672514570111922
  1.2740586907383546  0.7355781280629248 26.4634603385936380
  2.5481173814766542  1.4711562561239779 24.3598462497712340
  3.8221760722149596  2.2067343841850389 22.2563873705475963
  1.2740586907383618  0.7355781280624940 20.1527732817249010
  2.5481173814766764  1.4711562561235545 18.0489821633072509
  3.8221760722149671  2.2067343841846037 15.9432223735459324
  1.2740586907383631  0.7355781280620635 13.8482890952833220
  2.5481173814767004  1.4711562561232372 11.7455441326754109
