Fe
 1.0000000000000000
     4.0431264866333709   -0.0000000000000001    0.0000000000000001
     2.0215632433166846    3.5014502481383576    0.0000000000002421
    -0.0000000000006178    0.0000000000035884   37.7539085219334041
 Fe 
  32
Cartesian
 -1.5161724324873038 -0.8753625620348837  1.1712279606466114
  2.5269540541460502  1.4589376033907071  0.3640791025682766
 -3.5377356758039946 -2.0425126447475415  2.8271642689574232
  0.5053908108293647  0.2917875206779117  1.7845501953708522
 -5.5592989191206765 -3.2096627274601723  4.4174801408074416
 -1.5161724324873109 -0.8753625620346676  3.6816918251979263
 -7.5808621624373673 -4.3768128101727477  6.1338909621302085
 -3.5377356758039973 -2.0425126447472692  5.3003956080532051
 -9.6024254057540439 -5.5439628928854159  7.7824049732765799
 -5.5592989191206819 -3.2096627274599010  6.9369218275130899
 -11.6239886490707232 -6.7111129755981143  9.4201267406254487
 -7.5808621624373629 -4.3768128101725807  8.6043590221178921
 -13.6455518923873846 -7.8782630583108242 11.0725690089438089
 -9.6024254057540279 -5.5439628928852915 10.2499159111940372
 -15.6671151357040497 -9.0454131410235501 12.7202808940862102
 -11.6239886490707072 -6.7111129755980130 11.8949400661342874
 -17.6886783790206970 -10.2125632237362698 14.3686484708598528
 -13.6455518923873544 -7.8782630583107327 13.5433076429079478
 -19.7102416223373105 -11.3797133064489877 16.0136726258001190
 -15.6671151357039768 -9.0454131410234542 15.1910195280503473
 -21.7318048656539275 -12.5468633891617163 17.6592295148762730
 -17.6886783790205975 -10.2125632237361756 16.8434617963687145
 -23.7533681089705802 -13.7140134718744271 19.3266667094810849
 -19.7102416223372181 -11.3797133064489060 18.4811835637175754
 -25.7749313522872008 -14.8811635545870935 20.9631929289409626
 -21.7318048656538636 -12.5468633891616026 20.1296975748639504
 -27.7964945956038356 -16.0483136372996960 22.5818967117962508
 -23.7533681089705127 -13.7140134718742015 21.8461083961867502
 -29.8180578389206055 -17.2154637200123233 24.4790383416233084
 -25.7749313522871226 -14.8811635545868199 23.4364242680368235
 -31.8396210822372048 -18.3826138027250963 25.8995094344258696
 -27.7964945956035940 -16.0483136372993691 25.0923605763475628
