Co
 1.0000000000000000
     2.4775573112077969   -0.0000000000000000    0.0000000000000002
     0.0000000000000002    3.4987004754899567   -0.0000000000010930
    -0.0000000000000378   -0.0000000000173629   64.6091954738859187
 Co 
  42
Cartesian
  1.8581679834058284  0.0000000000004188  1.8814133120713892
  0.6193893278019392  1.7493502377450860  0.6790368212694606
  1.8581679834058265  0.0000000000007028  4.3761432928446542
  0.6193893278019251  1.7493502377455945  3.1478712093406309
  1.8581679834058358  3.4987004754903750  6.8623692757169810
  0.6193893278019379  1.7493502377455878  5.6274486097381118
  1.8581679834058258 -0.0000000000002972  9.3429874960245556
  0.6193893278019345  1.7493502377450814  8.1036357545571533
  1.8581679834058262 -0.0000000000012482 11.8247536012299630
  0.6193893278019260  1.7493502377442156 10.5844516995177695
  1.8581679834058273 -0.0000000000022314 14.3059653484362634
  0.6193893278019325  1.7493502377432391 13.0654491311209231
  1.8581679834058251 -0.0000000000032679 16.7872952512734912
  0.6193893278019245  1.7493502377422383 15.5466892560927743
  1.8581679834058296 -0.0000000000043540 19.2686255887888080
  0.6193893278019333  1.7493502377411672 18.0279482842260492
  1.8581679834058202 -0.0000000000053667 21.7499098738348806
  0.6193893278019276  1.7493502377401005 20.5092823157068835
  1.8581679834058176 -0.0000000000062290 24.2312195749160111
  0.6193893278019180  1.7493502377391628 22.9905730440009997
  1.8581679834058200 -0.0000000000070162 26.7124971176549657
  0.6193893278019265  1.7493502377383527 25.4718530727815562
  1.8581679834057987 -0.0000000000078344 29.1937771464353268
  0.6193893278019083  1.7493502377375625 27.9531306155205002
  1.8581679834058213 -0.0000000000087735 31.6750678747288106
  0.6193893278019108  1.7493502377366912 30.4344403166010515
  1.8581679834058173 -0.0000000000098411 34.1564019062089770
  0.6193893278019270  1.7493502377356831 32.9157246016467084
  1.8581679834057943  3.4987004754790387 36.6376609343408433
  0.6193893278019088  1.7493502377345929 35.3970549391613361
  1.8581679834057974 -0.0000000000119148 39.1189010593137141
  0.6193893278018924  1.7493502377335570 37.8783848419983187
  1.8581679834058562 -0.0000000000128808 41.5998984909169778
  0.6193893278019236  1.7493502377325769 40.3595965892047204
  1.8581679834058322  3.4987004754762179 44.0807144358770984
  0.6193893278019701  1.7493502377316401 42.8413626944108827
  1.8581679834057701  3.4987004754757116 46.5569015806975344
  0.6193893278018863  1.7493502377309302 45.3219809147167965
  1.8581679834058182 -0.0000000000142365 49.0364789810928841
  0.6193893278018978  1.7493502377306445 47.8082068975926973
  1.8581679834058320  3.4987004754762498 51.5053133691682561
  0.6193893278019305  1.7493502377309471 50.3029368783638162
