Fe14
1.0
   4.0356620246448012    0.0000000000000000    0.0000000000000002
   2.0178310123223997    3.4949858344305396    0.0000000000000002
   0.0000000000000000    0.0000000000000000   23.0657297143164151
Fe
14
direct
  -0.2499999999999999   -0.2499999999999999    0.0535714285714286 Fe
   0.4166666666666666    0.4166666666666667    0.0178571428571428 Fe
  -0.5833333333333333   -0.5833333333333333    0.1250000000000000 Fe
   0.0833333333333334    0.0833333333333335    0.0892857142857143 Fe
  -0.9166666666666666   -0.9166666666666666    0.1964285714285714 Fe
  -0.2499999999999998   -0.2499999999999998    0.1607142857142857 Fe
  -1.2500000000000000   -1.2500000000000000    0.2678571428571428 Fe
  -0.5833333333333331   -0.5833333333333330    0.2321428571428571 Fe
  -1.5833333333333330   -1.5833333333333330    0.3392857142857142 Fe
  -0.9166666666666665   -0.9166666666666664    0.3035714285714285 Fe
  -1.9166666666666665   -1.9166666666666665    0.4107142857142858 Fe
  -1.2499999999999998   -1.2499999999999998    0.3750000000000000 Fe
  -2.2499999999999996   -2.2499999999999996    0.4821428571428572 Fe
  -1.5833333333333330   -1.5833333333333328    0.4464285714285714 Fe
