Co
 1.0000000000000000
     2.4710499591811046    0.0000000000000000    0.0000000000000002
    -0.0000000000000000    2.4710499591810753    0.0000000000002971
     0.0000000000000017    0.0000000000044112   63.4981264181829843
 Co 
  30
Cartesian
  0.0000000000000182  0.0000000000071417 60.8061102834020133
  1.2355249795905858  1.2355249795986742 62.5773101042526179
  0.0000000000000136  2.4710499591856041 57.2698548313975806
  1.2355249795905610  1.2355249795962049 59.0333283284750010
  0.0000000000000033  0.0000000000036784 53.7551049958740208
  1.2355249795905567  1.2355249795945606 55.5146214612975868
  0.0000000000000033  0.0000000000027855 50.2363783491796028
  1.2355249795905541  1.2355249795937790 51.9955600427458577
  0.0000000000000116  2.4710499591835302 46.7175296028526219
  1.2355249795905592  1.2355249795930554 48.4769454074329573
  0.0000000000000114  0.0000000000026808 43.1986489187794191
  1.2355249795905534  1.2355249795930925 44.9580756336453717
  0.0000000000000300  0.0000000000027051 39.6797338104431532
  1.2355249795905774  1.2355249795933048 41.4391820411781424
  0.0000000000000015  0.0000000000025565 36.1608457147542808
  1.2355249795905778  1.2355249795932015 37.9203017731278749
 -0.0000000000000047  2.4710499591836164 32.6419654467034803
  1.2355249795905374  1.2355249795930558 34.4014136774386330
  0.0000000000000224  2.4710499591837474 29.1230718542359135
  1.2355249795905592  1.2355249795931222 30.8824985691015605
  0.0000000000000145  0.0000000000026924 25.6042020804485340
  1.2355249795905763  1.2355249795933059 27.3636178850289475
  0.0000000000000072  0.0000000000019176 22.0855874451357188
  1.2355249795905534  1.2355249795929359 23.8447691387020519
  0.0000000000000206  0.0000000000012250 18.5665260265841461
  1.2355249795905565  1.2355249795920964 20.3260424920076979
  0.0000000000000048 -0.0000000000005011 15.0478191594065596
  1.2355249795905625  1.2355249795912033 16.8112926564845786
  0.0000000000000039 -0.0000000000029257 11.5038373836286194
  1.2355249795905410  1.2355249795885741 13.2750372044802809
