Co30
1.0
   2.4788228254177493    0.0000000000000000    0.0000000000000002
   0.0000000000000004    2.4788228254177493    0.0000000000000002
   0.0000000000000000    0.0000000000000000   63.1005274516639716
Co
30
direct
   0.0000000000000015    0.0000000000000015    0.9583333333333334 Co
   0.5000000000000016    0.5000000000000016    0.9861111111111112 Co
   0.0000000000000014    1.0000000000000013    0.9027777777777778 Co
   0.5000000000000014    0.5000000000000013    0.9305555555555556 Co
   0.0000000000000013    0.0000000000000013    0.8472222222222222 Co
   0.5000000000000013    0.5000000000000013    0.8750000000000000 Co
   0.0000000000000012    0.0000000000000012    0.7916666666666667 Co
   0.5000000000000013    0.5000000000000013    0.8194444444444444 Co
   0.0000000000000011    1.0000000000000011    0.7361111111111110 Co
   0.5000000000000012    0.5000000000000011    0.7638888888888888 Co
   0.0000000000000011    0.0000000000000011    0.6805555555555555 Co
   0.5000000000000011    0.5000000000000011    0.7083333333333333 Co
   0.0000000000000010    0.0000000000000010    0.6250000000000000 Co
   0.5000000000000010    0.5000000000000009    0.6527777777777777 Co
   0.0000000000000009    0.0000000000000009    0.5694444444444444 Co
   0.5000000000000009    0.5000000000000009    0.5972222222222222 Co
   0.0000000000000008    1.0000000000000009    0.5138888888888888 Co
   0.5000000000000009    0.5000000000000008    0.5416666666666667 Co
   0.0000000000000007    1.0000000000000007    0.4583333333333334 Co
   0.5000000000000008    0.5000000000000008    0.4861111111111112 Co
   0.0000000000000006    0.0000000000000006    0.4027777777777778 Co
   0.5000000000000007    0.5000000000000007    0.4305555555555556 Co
   0.0000000000000005    0.0000000000000005    0.3472222222222223 Co
   0.5000000000000006    0.5000000000000006    0.3750000000000000 Co
   0.0000000000000005    0.0000000000000005    0.2916666666666668 Co
   0.5000000000000004    0.5000000000000004    0.3194444444444446 Co
   0.0000000000000004    0.0000000000000004    0.2361111111111112 Co
   0.5000000000000004    0.5000000000000003    0.2638888888888890 Co
   0.0000000000000003    0.0000000000000003    0.1805555555555556 Co
   0.5000000000000003    0.5000000000000003    0.2083333333333334 Co
