Zr42
1.0
   3.2112877764595980    0.0000000000000000   -0.0000000000000005
   1.6056438882297992    5.9513639955333453   -0.0000000000000010
   0.0000000000000000    0.0000000000000000   63.9270544010488351
Zr
42
direct
   0.6340986183291781    0.2318027633416437    0.0032051282051282 Zr
  -0.0249151983790403    0.5498303967580803    0.0352564102564102 Zr
   0.2432820382793159    0.0134359234413676    0.0416666666666667 Zr
  -0.4157317784289025    0.3314635568578043    0.0737179487179487 Zr
  -0.1475345417705462   -0.2049309164589085    0.0801282051282051 Zr
  -0.8065483584787648    0.1130967169575281    0.1121794871794872 Zr
  -0.5383511218204086   -0.4232977563591846    0.1185897435897436 Zr
  -1.1973649385286271   -0.1052701229427480    0.1506410256410256 Zr
  -0.9291677018702709   -0.6416645962594608    0.1570512820512820 Zr
  -1.5881815185784891   -0.3236369628430240    0.1891025641025640 Zr
  -1.3199842819201328   -0.8600314361597367    0.1955128205128204 Zr
  -1.9789980986283513   -0.5420038027433001    0.2275641025641025 Zr
  -1.7108008619699953   -1.0783982760600128    0.2339743589743589 Zr
  -2.3698146786782135   -0.7603706426435760    0.2660256410256409 Zr
  -2.1016174420198572   -1.2967651159602889    0.2724358974358973 Zr
  -2.7606312587280750   -0.9787374825438520    0.3044871794871793 Zr
  -2.4924340220697196   -1.5151319558605649    0.3108974358974358 Zr
  -3.1514478387779379   -1.1971043224441282    0.3429487179487178 Zr
  -2.8832506021195812   -1.7334987957608408    0.3493589743589742 Zr
  -3.5422644188277999   -1.4154711623444043    0.3814102564102563 Zr
  -3.2740671821694436   -1.9518656356611170    0.3878205128205127 Zr
  -3.9330809988776632   -1.6338380022446810    0.4198717948717948 Zr
  -3.6648837622193060   -2.1702324755613933    0.4262820512820511 Zr
  -4.3238975789275242   -1.8522048421449566    0.4583333333333332 Zr
  -4.0557003422691684   -2.3885993154616694    0.4647435897435896 Zr
  -4.7147141589773867   -2.0705716820452329    0.4967948717948716 Zr
  -4.4465169223190308   -2.6069661553619454    0.5032051282051281 Zr
  -5.1055307390272491   -2.2889385219455090    0.5352564102564101 Zr
  -4.8373335023688924   -2.8253329952622210    0.5416666666666664 Zr
  -5.4963473190771106   -2.5073053618457846    0.5737179487179485 Zr
  -5.2281500824187548   -3.0436998351624975    0.5801282051282048 Zr
  -5.8871638991269730   -2.7256722017460606    0.6121794871794869 Zr
  -5.6189666624686181   -3.2620666750627740    0.6185897435897434 Zr
  -6.2779804791768363   -2.9440390416463376    0.6506410256410254 Zr
  -6.0097832425184796   -3.4804335149630496    0.6570512820512818 Zr
  -6.6687970592266979   -3.1624058815466132    0.6891025641025639 Zr
  -6.4005998225683420   -3.6988003548633257    0.6955128205128203 Zr
  -7.0596136392765603   -3.3807727214468892    0.7275641025641023 Zr
  -6.7914164026182036   -3.9171671947636013    0.7339743589743587 Zr
  -7.4504302193264218   -3.5991395613471648    0.7660256410256407 Zr
  -7.1822329826680660   -4.1355340346638778    0.7724358974358972 Zr
  -7.8412467993762842   -3.8175064012474409    0.8044871794871792 Zr
