Zr36
1.0
   3.2112877764595984    0.0000000000000000   -0.0000000000000005
   0.0000000000000008    5.2616020868079234    0.0000000000000003
   0.0000000000000000    0.0000000000000000   61.1832494520820163
Zr
36
direct
   0.2500000000000002    0.2500000000000001    0.0378787878787879 Zr
   0.2500000000000001    0.7500000000000002    0.0075757575757576 Zr
  -0.2499999999999996    0.2500000000000002    0.0833333333333333 Zr
  -0.2499999999999997    0.7500000000000003    0.0530303030303030 Zr
  -0.7499999999999991    0.2500000000000002    0.1287878787878788 Zr
  -0.7499999999999993    0.7500000000000003    0.0984848484848485 Zr
  -1.2499999999999987    0.2500000000000003    0.1742424242424242 Zr
  -1.2499999999999989    0.7500000000000004    0.1439393939393940 Zr
  -1.7499999999999987    0.2500000000000004    0.2196969696969697 Zr
  -1.7499999999999989    0.7500000000000006    0.1893939393939394 Zr
  -2.2499999999999982    0.2500000000000004    0.2651515151515151 Zr
  -2.2499999999999982    0.7500000000000006    0.2348484848484848 Zr
  -2.7499999999999982    0.2500000000000005    0.3106060606060606 Zr
  -2.7499999999999982    0.7500000000000007    0.2803030303030303 Zr
  -3.2499999999999978    0.2500000000000006    0.3560606060606061 Zr
  -3.2499999999999973    0.7500000000000007    0.3257575757575757 Zr
  -3.7499999999999978    0.2500000000000007    0.4015151515151515 Zr
  -3.7499999999999973    0.7500000000000008    0.3712121212121212 Zr
  -4.2499999999999973    0.2500000000000007    0.4469696969696970 Zr
  -4.2499999999999973    0.7500000000000009    0.4166666666666667 Zr
  -4.7499999999999964    0.2500000000000008    0.4924242424242424 Zr
  -4.7499999999999964    0.7500000000000009    0.4621212121212121 Zr
  -5.2499999999999964    0.2500000000000009    0.5378787878787878 Zr
  -5.2499999999999964    0.7500000000000010    0.5075757575757576 Zr
  -5.7499999999999956    0.2500000000000009    0.5833333333333333 Zr
  -5.7499999999999956    0.7500000000000011    0.5530303030303030 Zr
  -6.2499999999999964    0.2500000000000010    0.6287878787878788 Zr
  -6.2499999999999964    0.7500000000000011    0.5984848484848485 Zr
  -6.7499999999999947    0.2500000000000011    0.6742424242424242 Zr
  -6.7499999999999947    0.7500000000000012    0.6439393939393939 Zr
  -7.2499999999999947    0.2500000000000012    0.7196969696969696 Zr
  -7.2499999999999938    0.7500000000000013    0.6893939393939392 Zr
  -7.7499999999999947    0.2500000000000012    0.7651515151515151 Zr
  -7.7499999999999947    0.7500000000000013    0.7348484848484849 Zr
  -8.2499999999999947    0.2500000000000013    0.8106060606060606 Zr
  -8.2499999999999929    0.7500000000000014    0.7803030303030302 Zr
